Na6 Ag2 S4
1.0
   9.5605624420454927    0.0000000000000000   -4.2515085465775009
  -2.2087970767462695    9.9173908605769991   -4.9670233853910268
   0.0000000000000000    0.0000000000000000   12.8753921030835627
Na Ag S
6 2 4
direct
   0.5000000000000000    0.7500000000000000    0.0000000000000000 Na
   0.5000000000000000    0.2500000000000000    0.0000000000000000 Na
   0.7703000000000000    0.5203000000000000    0.5406000000000000 Na
   0.2297000000000000    0.9797000000000000    0.4594000000000000 Na
   0.2297000000000000    0.4797000000000000    0.4594000000000000 Na
   0.7703000000000000    0.0203000000000000    0.5406000000000000 Na
   0.0000000000000000    0.0000000000000000    0.0000000000000000 Ag
   0.0000000000000000    0.5000000000000000    0.0000000000000000 Ag
   0.6014000000000000    0.8697000000000000    0.7393999999999999 S
   0.3986000000000000    0.1303000000000000    0.2606000000000000 S
   0.8620000000000000    0.6303000000000000    0.2606000000000000 S
   0.1380000000000000    0.3697000000000000    0.7393999999999999 S
