Na6 Ag2 S4
1.0
   8.0897066817308030    0.0000000000000000   -3.5974303086425015
  -1.8689821418622283    8.3916384204882313   -4.2028659414847160
   0.0000000000000000    0.0000000000000000   10.8945625487630160
Na Ag S
6 2 4
direct
   0.5000000000000000    0.7500000000000000    0.0000000000000000 Na
   0.5000000000000000    0.2500000000000000    0.0000000000000000 Na
   0.7703000000000000    0.5203000000000000    0.5406000000000000 Na
   0.2297000000000000    0.9797000000000000    0.4594000000000000 Na
   0.2297000000000000    0.4797000000000000    0.4594000000000000 Na
   0.7703000000000000    0.0203000000000000    0.5406000000000000 Na
   0.0000000000000000    0.0000000000000000    0.0000000000000000 Ag
   0.0000000000000000    0.5000000000000000    0.0000000000000000 Ag
   0.6014000000000000    0.8697000000000000    0.7393999999999999 S
   0.3986000000000000    0.1303000000000000    0.2606000000000000 S
   0.8620000000000000    0.6303000000000000    0.2606000000000000 S
   0.1380000000000000    0.3697000000000000    0.7393999999999999 S
