Na6 Ag2 S4
1.0
   9.9282763821241655    0.0000000000000000   -4.4150281060612517
  -2.2937508104672801   10.2988289705991924   -5.1580627463676052
   0.0000000000000000    0.0000000000000000   13.3705994916637021
Na Ag S
6 2 4
direct
   0.5000000000000000    0.7500000000000000    0.0000000000000000 Na
   0.5000000000000000    0.2500000000000000    0.0000000000000000 Na
   0.7703000000000000    0.5203000000000000    0.5406000000000000 Na
   0.2297000000000000    0.9797000000000000    0.4594000000000000 Na
   0.2297000000000000    0.4797000000000000    0.4594000000000000 Na
   0.7703000000000000    0.0203000000000000    0.5406000000000000 Na
   0.0000000000000000    0.0000000000000000    0.0000000000000000 Ag
   0.0000000000000000    0.5000000000000000    0.0000000000000000 Ag
   0.6014000000000000    0.8697000000000000    0.7393999999999999 S
   0.3986000000000000    0.1303000000000000    0.2606000000000000 S
   0.8620000000000000    0.6303000000000000    0.2606000000000000 S
   0.1380000000000000    0.3697000000000000    0.7393999999999999 S
