Na6 Ag2 S4
1.0
   6.2511369813374378    0.0000000000000000   -2.7798325112237507
  -1.4442134732571763    6.4844478703772683   -3.2476691366018255
   0.0000000000000000    0.0000000000000000    8.4185256058623299
Na Ag S
6 2 4
direct
   0.5000000000000000    0.7500000000000000    0.0000000000000000 Na
   0.5000000000000000    0.2500000000000000    0.0000000000000000 Na
   0.7703000000000000    0.5203000000000000    0.5406000000000000 Na
   0.2297000000000000    0.9797000000000000    0.4594000000000000 Na
   0.2297000000000000    0.4797000000000000    0.4594000000000000 Na
   0.7703000000000000    0.0203000000000000    0.5406000000000000 Na
   0.0000000000000000    0.0000000000000000    0.0000000000000000 Ag
   0.0000000000000000    0.5000000000000000    0.0000000000000000 Ag
   0.6014000000000000    0.8697000000000000    0.7393999999999999 S
   0.3986000000000000    0.1303000000000000    0.2606000000000000 S
   0.8620000000000000    0.6303000000000000    0.2606000000000000 S
   0.1380000000000000    0.3697000000000000    0.7393999999999999 S
