W3 O9
1.0
   9.6704744027151897    0.0000000000000000    0.0000000000000006
  -4.8352372013575922    8.3748764993985017    0.0000000000000006
   0.0000000000000000    0.0000000000000000    5.1665085908723656
W O
3 9
direct
   0.5000000000000000    0.0000000000000000    0.0000000000000000 W6+
   0.0000000000000000    0.5000000000000000    0.0000000000000000 W6+
   0.5000000000000000    0.5000000000000000    0.0000000000000000 W6+
   0.5000000000000000    0.0000000000000000    0.5000000000000000 O2-
   0.0000000000000000    0.5000000000000000    0.5000000000000000 O2-
   0.5000000000000000    0.5000000000000000    0.5000000000000000 O2-
   0.2120000000000000    0.4240000000000000    0.0000000000000000 O2-
   0.5760000000000000    0.7880000000000000    0.0000000000000000 O2-
   0.2120000000000000    0.7880000000000000    0.0000000000000000 O2-
   0.4240000000000000    0.2120000000000000    0.0000000000000000 O2-
   0.7880000000000000    0.5760000000000000    0.0000000000000000 O2-
   0.7880000000000000    0.2120000000000000    0.0000000000000000 O2-
