W3 O9
1.0
   6.5759225938463279    0.0000000000000000    0.0000000000000004
  -3.2879612969231622    5.6949160195909814    0.0000000000000004
   0.0000000000000000    0.0000000000000000    3.5132258417932083
W O
3 9
direct
   0.5000000000000000    0.0000000000000000    0.0000000000000000 W6+
   0.0000000000000000    0.5000000000000000    0.0000000000000000 W6+
   0.5000000000000000    0.5000000000000000    0.0000000000000000 W6+
   0.5000000000000000    0.0000000000000000    0.5000000000000000 O2-
   0.0000000000000000    0.5000000000000000    0.5000000000000000 O2-
   0.5000000000000000    0.5000000000000000    0.5000000000000000 O2-
   0.2120000000000000    0.4240000000000000    0.0000000000000000 O2-
   0.5760000000000000    0.7880000000000000    0.0000000000000000 O2-
   0.2120000000000000    0.7880000000000000    0.0000000000000000 O2-
   0.4240000000000000    0.2120000000000000    0.0000000000000000 O2-
   0.7880000000000000    0.5760000000000000    0.0000000000000000 O2-
   0.7880000000000000    0.2120000000000000    0.0000000000000000 O2-
