W3 O9
1.0
   7.7363795221721512    0.0000000000000000    0.0000000000000005
  -3.8681897610860729    6.6999011995188011    0.0000000000000005
   0.0000000000000000    0.0000000000000000    4.1332068726978921
W O
3 9
direct
   0.5000000000000000    0.0000000000000000    0.0000000000000000 W6+
   0.0000000000000000    0.5000000000000000    0.0000000000000000 W6+
   0.5000000000000000    0.5000000000000000    0.0000000000000000 W6+
   0.5000000000000000    0.0000000000000000    0.5000000000000000 O2-
   0.0000000000000000    0.5000000000000000    0.5000000000000000 O2-
   0.5000000000000000    0.5000000000000000    0.5000000000000000 O2-
   0.2120000000000000    0.4240000000000000    0.0000000000000000 O2-
   0.5760000000000000    0.7880000000000000    0.0000000000000000 O2-
   0.2120000000000000    0.7880000000000000    0.0000000000000000 O2-
   0.4240000000000000    0.2120000000000000    0.0000000000000000 O2-
   0.7880000000000000    0.5760000000000000    0.0000000000000000 O2-
   0.7880000000000000    0.2120000000000000    0.0000000000000000 O2-
