W3 O9
1.0
   6.9627415699549369    0.0000000000000000    0.0000000000000004
  -3.4813707849774662    6.0299110795669222    0.0000000000000004
   0.0000000000000000    0.0000000000000000    3.7198861854281033
W O
3 9
direct
   0.5000000000000000    0.0000000000000000    0.0000000000000000 W6+
   0.0000000000000000    0.5000000000000000    0.0000000000000000 W6+
   0.5000000000000000    0.5000000000000000    0.0000000000000000 W6+
   0.5000000000000000    0.0000000000000000    0.5000000000000000 O2-
   0.0000000000000000    0.5000000000000000    0.5000000000000000 O2-
   0.5000000000000000    0.5000000000000000    0.5000000000000000 O2-
   0.2120000000000000    0.4240000000000000    0.0000000000000000 O2-
   0.5760000000000000    0.7880000000000000    0.0000000000000000 O2-
   0.2120000000000000    0.7880000000000000    0.0000000000000000 O2-
   0.4240000000000000    0.2120000000000000    0.0000000000000000 O2-
   0.7880000000000000    0.5760000000000000    0.0000000000000000 O2-
   0.7880000000000000    0.2120000000000000    0.0000000000000000 O2-
