W3 O9
1.0
  10.4441123549324040    0.0000000000000000    0.0000000000000006
  -5.2220561774661993    9.0448666193503815    0.0000000000000006
   0.0000000000000000    0.0000000000000000    5.5798292781421548
W O
3 9
direct
   0.5000000000000000    0.0000000000000000    0.0000000000000000 W6+
   0.0000000000000000    0.5000000000000000    0.0000000000000000 W6+
   0.5000000000000000    0.5000000000000000    0.0000000000000000 W6+
   0.5000000000000000    0.0000000000000000    0.5000000000000000 O2-
   0.0000000000000000    0.5000000000000000    0.5000000000000000 O2-
   0.5000000000000000    0.5000000000000000    0.5000000000000000 O2-
   0.2120000000000000    0.4240000000000000    0.0000000000000000 O2-
   0.5760000000000000    0.7880000000000000    0.0000000000000000 O2-
   0.2120000000000000    0.7880000000000000    0.0000000000000000 O2-
   0.4240000000000000    0.2120000000000000    0.0000000000000000 O2-
   0.7880000000000000    0.5760000000000000    0.0000000000000000 O2-
   0.7880000000000000    0.2120000000000000    0.0000000000000000 O2-
