Ge4 S4
1.0
   3.5388851011779807    0.0000000000000000    0.0000000000000002
   0.0000000000000014    8.5956136956350946    0.0000000000000005
   0.0000000000000000    0.0000000000000000    3.0026903888782868
Ge S
4 4
direct
   0.1670000000000000    0.8750000000000000    0.0000000000000000 Ge0+
   0.3330000000000000    0.3750000000000000    0.0000000000000000 Ge0+
   0.8330000000000000    0.1250000000000000    0.5000000000000000 Ge0+
   0.6670000000000000    0.6250000000000000    0.5000000000000000 Ge0+
   0.1110000000000000    0.1110000000000000    0.0000000000000000 S0+
   0.3890000000000000    0.6110000000000000    0.0000000000000000 S0+
   0.8890000000000000    0.8890000000000000    0.5000000000000000 S0+
   0.6110000000000000    0.3890000000000000    0.5000000000000000 S0+
