Ge4 S4
1.0
   3.7916626084049798    0.0000000000000000    0.0000000000000002
   0.0000000000000015    9.2095861024661740    0.0000000000000006
   0.0000000000000000    0.0000000000000000    3.2171682737981646
Ge S
4 4
direct
   0.1670000000000000    0.8750000000000000    0.0000000000000000 Ge0+
   0.3330000000000000    0.3750000000000000    0.0000000000000000 Ge0+
   0.8330000000000000    0.1250000000000000    0.5000000000000000 Ge0+
   0.6670000000000000    0.6250000000000000    0.5000000000000000 Ge0+
   0.1110000000000000    0.1110000000000000    0.0000000000000000 S0+
   0.3890000000000000    0.6110000000000000    0.0000000000000000 S0+
   0.8890000000000000    0.8890000000000000    0.5000000000000000 S0+
   0.6110000000000000    0.3890000000000000    0.5000000000000000 S0+
