Ge4 S4
1.0
   4.0444401156319785    0.0000000000000000    0.0000000000000002
   0.0000000000000016    9.8235585092972535    0.0000000000000006
   0.0000000000000000    0.0000000000000000    3.4316461587180425
Ge S
4 4
direct
   0.1670000000000000    0.8750000000000000    0.0000000000000000 Ge0+
   0.3330000000000000    0.3750000000000000    0.0000000000000000 Ge0+
   0.8330000000000000    0.1250000000000000    0.5000000000000000 Ge0+
   0.6670000000000000    0.6250000000000000    0.5000000000000000 Ge0+
   0.1110000000000000    0.1110000000000000    0.0000000000000000 S0+
   0.3890000000000000    0.6110000000000000    0.0000000000000000 S0+
   0.8890000000000000    0.8890000000000000    0.5000000000000000 S0+
   0.6110000000000000    0.3890000000000000    0.5000000000000000 S0+
