Ge4 S4
1.0
   5.5611051589939704    0.0000000000000000    0.0000000000000003
   0.0000000000000022   13.5073929502837231    0.0000000000000008
   0.0000000000000000    0.0000000000000000    4.7185134682373082
Ge S
4 4
direct
   0.1670000000000000    0.8750000000000000    0.0000000000000000 Ge0+
   0.3330000000000000    0.3750000000000000    0.0000000000000000 Ge0+
   0.8330000000000000    0.1250000000000000    0.5000000000000000 Ge0+
   0.6670000000000000    0.6250000000000000    0.5000000000000000 Ge0+
   0.1110000000000000    0.1110000000000000    0.0000000000000000 S0+
   0.3890000000000000    0.6110000000000000    0.0000000000000000 S0+
   0.8890000000000000    0.8890000000000000    0.5000000000000000 S0+
   0.6110000000000000    0.3890000000000000    0.5000000000000000 S0+
