Sc2 Fe2 Co2 Mo2 P4
1.0
   3.6499310000000000    0.0000000000000000    0.0000000000000002
   0.0000000000000010    6.0780919999999998    0.0000000000000004
   0.0000000000000000    0.0000000000000000    6.9141349999999999
Sc Fe Co Mo P
2 2 2 2 4
direct
   0.2500000000000000    0.9771700000000000    0.3205230000000000 Sc
   0.2500000000000000    0.4771700000000000    0.1794770000000000 Sc
   0.2500000000000000    0.8626080000000000    0.9336390000000000 Fe
   0.2500000000000000    0.3626080000000000    0.5663610000000000 Fe
   0.7500000000000000    0.1430070000000000    0.0577420000000000 Co
   0.7500000000000000    0.6430070000000000    0.4422580000000000 Co
   0.7500000000000000    0.0203120000000000    0.6800040000000001 Mo
   0.7500000000000000    0.5203120000000000    0.8199959999999999 Mo
   0.2500000000000000    0.2244250000000000    0.8727440000000000 P
   0.2500000000000000    0.7244250000000000    0.6272560000000000 P
   0.7500000000000000    0.7724780000000000    0.1061140000000000 P
   0.7500000000000000    0.2724780000000000    0.3938860000000000 P
