Pr2 O3
1.0
   5.0379944991426617    0.0000000000000000    0.0000000000000003
  -2.5189972495713295    4.3630312203838058    0.0000000000000003
   0.0000000000000000    0.0000000000000000    7.8514199986638893
Pr O
2 3
direct
   0.3333333333333333    0.6666666666666666    0.2500000000000000 Pr3+
   0.6666666666666666    0.3333333333333333    0.7500000000000000 Pr3+
   0.2500000000000000    0.2500000000000000    0.0000000000000000 O2-
   0.7500000000000000    0.0000000000000000    0.0000000000000000 O2-
   0.0000000000000000    0.7500000000000000    0.0000000000000000 O2-
