Pr2 O3
1.0
   4.5999080209563443    0.0000000000000000    0.0000000000000003
  -2.2999540104781708    3.9836372012199974    0.0000000000000003
   0.0000000000000000    0.0000000000000000    7.1686878248670300
Pr O
2 3
direct
   0.3333333333333333    0.6666666666666666    0.2500000000000000 Pr3+
   0.6666666666666666    0.3333333333333333    0.7500000000000000 Pr3+
   0.2500000000000000    0.2500000000000000    0.0000000000000000 O2-
   0.7500000000000000    0.0000000000000000    0.0000000000000000 O2-
   0.0000000000000000    0.7500000000000000    0.0000000000000000 O2-
