Pr2 O3
1.0
   2.8475621082110703    0.0000000000000000    0.0000000000000002
  -1.4237810541055345    2.4660611245647601    0.0000000000000002
   0.0000000000000000    0.0000000000000000    4.4377591296795904
Pr O
2 3
direct
   0.3333333333333333    0.6666666666666666    0.2500000000000000 Pr3+
   0.6666666666666666    0.3333333333333333    0.7500000000000000 Pr3+
   0.2500000000000000    0.2500000000000000    0.0000000000000000 O2-
   0.7500000000000000    0.0000000000000000    0.0000000000000000 O2-
   0.0000000000000000    0.7500000000000000    0.0000000000000000 O2-
