Pr2 O3
1.0
   4.8189512600495039    0.0000000000000000    0.0000000000000003
  -2.4094756300247506    4.1733342108019018    0.0000000000000003
   0.0000000000000000    0.0000000000000000    7.5100539117654606
Pr O
2 3
direct
   0.3333333333333333    0.6666666666666666    0.2500000000000000 Pr3+
   0.6666666666666666    0.3333333333333333    0.7500000000000000 Pr3+
   0.2500000000000000    0.2500000000000000    0.0000000000000000 O2-
   0.7500000000000000    0.0000000000000000    0.0000000000000000 O2-
   0.0000000000000000    0.7500000000000000    0.0000000000000000 O2-
