Pr2 O3
1.0
   3.7237350645837073    0.0000000000000000    0.0000000000000002
  -1.8618675322918525    3.2248491628923786    0.0000000000000002
   0.0000000000000000    0.0000000000000000    5.8032234772733098
Pr O
2 3
direct
   0.3333333333333333    0.6666666666666666    0.2500000000000000 Pr3+
   0.6666666666666666    0.3333333333333333    0.7500000000000000 Pr3+
   0.2500000000000000    0.2500000000000000    0.0000000000000000 O2-
   0.7500000000000000    0.0000000000000000    0.0000000000000000 O2-
   0.0000000000000000    0.7500000000000000    0.0000000000000000 O2-
