Pr2 O3
1.0
   5.2570377382358222    0.0000000000000000    0.0000000000000003
  -2.6285188691179098    4.5527282299657115    0.0000000000000003
   0.0000000000000000    0.0000000000000000    8.1927860855623198
Pr O
2 3
direct
   0.3333333333333333    0.6666666666666666    0.2500000000000000 Pr3+
   0.6666666666666666    0.3333333333333333    0.7500000000000000 Pr3+
   0.2500000000000000    0.2500000000000000    0.0000000000000000 O2-
   0.7500000000000000    0.0000000000000000    0.0000000000000000 O2-
   0.0000000000000000    0.7500000000000000    0.0000000000000000 O2-
