Pr2 O3
1.0
   5.9141674555153001    0.0000000000000000    0.0000000000000004
  -2.9570837277576483    5.1218192587114251    0.0000000000000004
   0.0000000000000000    0.0000000000000000    9.2168843462576113
Pr O
2 3
direct
   0.3333333333333333    0.6666666666666666    0.2500000000000000 Pr3+
   0.6666666666666666    0.3333333333333333    0.7500000000000000 Pr3+
   0.2500000000000000    0.2500000000000000    0.0000000000000000 O2-
   0.7500000000000000    0.0000000000000000    0.0000000000000000 O2-
   0.0000000000000000    0.7500000000000000    0.0000000000000000 O2-
