Pr2 O3
1.0
   4.1618215427700260    0.0000000000000000    0.0000000000000003
  -2.0809107713850117    3.6042431820561878    0.0000000000000003
   0.0000000000000000    0.0000000000000000    6.4859556510701699
Pr O
2 3
direct
   0.3333333333333333    0.6666666666666666    0.2500000000000000 Pr3+
   0.6666666666666666    0.3333333333333333    0.7500000000000000 Pr3+
   0.2500000000000000    0.2500000000000000    0.0000000000000000 O2-
   0.7500000000000000    0.0000000000000000    0.0000000000000000 O2-
   0.0000000000000000    0.7500000000000000    0.0000000000000000 O2-
