Pr2 O3
1.0
   3.5046918254905481    0.0000000000000000    0.0000000000000002
  -1.7523459127452732    3.0351521533104742    0.0000000000000002
   0.0000000000000000    0.0000000000000000    5.4618573903748802
Pr O
2 3
direct
   0.3333333333333333    0.6666666666666666    0.2500000000000000 Pr3+
   0.6666666666666666    0.3333333333333333    0.7500000000000000 Pr3+
   0.2500000000000000    0.2500000000000000    0.0000000000000000 O2-
   0.7500000000000000    0.0000000000000000    0.0000000000000000 O2-
   0.0000000000000000    0.7500000000000000    0.0000000000000000 O2-
