Pr2 O3
1.0
   5.6951242164221405    0.0000000000000000    0.0000000000000003
  -2.8475621082110689    4.9321222491295202    0.0000000000000003
   0.0000000000000000    0.0000000000000000    8.8755182593591808
Pr O
2 3
direct
   0.3333333333333333    0.6666666666666666    0.2500000000000000 Pr3+
   0.6666666666666666    0.3333333333333333    0.7500000000000000 Pr3+
   0.2500000000000000    0.2500000000000000    0.0000000000000000 O2-
   0.7500000000000000    0.0000000000000000    0.0000000000000000 O2-
   0.0000000000000000    0.7500000000000000    0.0000000000000000 O2-
