Pr2 O3
1.0
   6.1332106946084588    0.0000000000000000    0.0000000000000004
  -3.0666053473042276    5.3115162682933290    0.0000000000000004
   0.0000000000000000    0.0000000000000000    9.5582504331560401
Pr O
2 3
direct
   0.3333333333333333    0.6666666666666666    0.2500000000000000 Pr3+
   0.6666666666666666    0.3333333333333333    0.7500000000000000 Pr3+
   0.2500000000000000    0.2500000000000000    0.0000000000000000 O2-
   0.7500000000000000    0.0000000000000000    0.0000000000000000 O2-
   0.0000000000000000    0.7500000000000000    0.0000000000000000 O2-
