Pr2 O3
1.0
   3.9427783036768664    0.0000000000000000    0.0000000000000002
  -1.9713891518384321    3.4145461724742834    0.0000000000000002
   0.0000000000000000    0.0000000000000000    6.1445895641717403
Pr O
2 3
direct
   0.3333333333333333    0.6666666666666666    0.2500000000000000 Pr3+
   0.6666666666666666    0.3333333333333333    0.7500000000000000 Pr3+
   0.2500000000000000    0.2500000000000000    0.0000000000000000 O2-
   0.7500000000000000    0.0000000000000000    0.0000000000000000 O2-
   0.0000000000000000    0.7500000000000000    0.0000000000000000 O2-
