Pr2 O3
1.0
   3.0666053473042294    0.0000000000000000    0.0000000000000002
  -1.5333026736521138    2.6557581341466645    0.0000000000000002
   0.0000000000000000    0.0000000000000000    4.7791252165780200
Pr O
2 3
direct
   0.3333333333333333    0.6666666666666666    0.2500000000000000 Pr3+
   0.6666666666666666    0.3333333333333333    0.7500000000000000 Pr3+
   0.2500000000000000    0.2500000000000000    0.0000000000000000 O2-
   0.7500000000000000    0.0000000000000000    0.0000000000000000 O2-
   0.0000000000000000    0.7500000000000000    0.0000000000000000 O2-
