Pr2 O3
1.0
   3.2856485863973890    0.0000000000000000    0.0000000000000002
  -1.6428242931986936    2.8454551437285698    0.0000000000000002
   0.0000000000000000    0.0000000000000000    5.1204913034764505
Pr O
2 3
direct
   0.3333333333333333    0.6666666666666666    0.2500000000000000 Pr3+
   0.6666666666666666    0.3333333333333333    0.7500000000000000 Pr3+
   0.2500000000000000    0.2500000000000000    0.0000000000000000 O2-
   0.7500000000000000    0.0000000000000000    0.0000000000000000 O2-
   0.0000000000000000    0.7500000000000000    0.0000000000000000 O2-
