Pr2 O3
1.0
   2.6285188691179111    0.0000000000000000    0.0000000000000002
  -1.3142594345589549    2.2763641149828557    0.0000000000000002
   0.0000000000000000    0.0000000000000000    4.0963930427811599
Pr O
2 3
direct
   0.3333333333333333    0.6666666666666666    0.2500000000000000 Pr3+
   0.6666666666666666    0.3333333333333333    0.7500000000000000 Pr3+
   0.2500000000000000    0.2500000000000000    0.0000000000000000 O2-
   0.7500000000000000    0.0000000000000000    0.0000000000000000 O2-
   0.0000000000000000    0.7500000000000000    0.0000000000000000 O2-
