Pr2 O3
1.0
   4.3808647818631847    0.0000000000000000    0.0000000000000003
  -2.1904323909315915    3.7939401916380926    0.0000000000000003
   0.0000000000000000    0.0000000000000000    6.8273217379685995
Pr O
2 3
direct
   0.3333333333333333    0.6666666666666666    0.2500000000000000 Pr3+
   0.6666666666666666    0.3333333333333333    0.7500000000000000 Pr3+
   0.2500000000000000    0.2500000000000000    0.0000000000000000 O2-
   0.7500000000000000    0.0000000000000000    0.0000000000000000 O2-
   0.0000000000000000    0.7500000000000000    0.0000000000000000 O2-
