Hf4 Si4 Ru1 Rh1 Au2
1.0
   3.9478970000000002    0.0000000000000000    0.0000000000000002
   0.0000000000000011    6.6125247117872545    0.1651712933811464
   0.0000000000000000    0.0000000000000000    7.6365721400000002
Hf Si Ru Rh Au
4 4 1 1 2
direct
   0.2500000000000000    0.5218880000000000    0.1888430000000000 Hf
   0.7500000000000000    0.4763640000000000    0.8123510000000000 Hf
   0.2500000000000000    0.0266240000000000    0.3294660000000000 Hf
   0.7500000000000000    0.9753600000000000    0.6713200000000000 Hf
   0.2500000000000000    0.7517500000000000    0.8641820000000000 Si
   0.7500000000000000    0.2489630000000000    0.1363110000000000 Si
   0.2500000000000000    0.2714910000000000    0.6055610000000000 Si
   0.7500000000000000    0.7261780000000000    0.3920170000000000 Si
   0.7500000000000000    0.3542160000000000    0.4379860000000000 Ru
   0.2500000000000000    0.6458630000000000    0.5623250000000000 Rh
   0.7500000000000000    0.8470460000000000    0.0667740000000000 Au
   0.2500000000000000    0.1542560000000000    0.9328650000000001 Au
