Tb2 Th1 Sc2 Al1 Rh3
1.0
   7.2932889999999997    0.0000000000000000    0.0000000000000004
  -3.6466440004884215    6.1888870000407250    0.0000000000000004
   0.0000000000000000    0.0000000000000000    4.2947179999999996
Tb Th Sc Al Rh
2 1 2 1 3
direct
   0.9830470000000000    0.3954590000000000    0.5000000000000000 Tb
   0.5875880000000000    0.6045410000000000    0.5000000000000000 Tb
   0.4275330000000000    0.0000000000000000    0.5000000000000000 Th
   0.9810010000000000    0.7404360000000000    0.0000000000000000 Sc
   0.2405650000000000    0.2595640000000000    0.0000000000000000 Sc
   0.7681240000000000    0.0000000000000000    0.0000000000000000 Al
   0.3446980000000000    0.6948270000000000    0.0000000000000000 Rh
   0.6498730000000000    0.3051730000000000    0.0000000000000000 Rh
   0.0175710000000000    0.0000000000000000    0.5000000000000000 Rh
