Cs2 Si1 F6
1.0
   6.7121768105097654    0.0000000000000000    3.8752770883961780
   2.2373922701699218    6.3283009856460630    3.8752770883961780
   0.0000000000000000    0.0000000000000000    7.7505541767923534
Cs Si F
2 1 6
direct
   0.7500000000000000    0.7500000000000000    0.7500000000000000 Cs+
   0.2500000000000000    0.2500000000000000    0.2500000000000000 Cs+
   0.0000000000000000    0.0000000000000000    0.0000000000000000 Si4+
   0.7900000000000000    0.7900000000000000    0.2100000000000000 F-
   0.2100000000000000    0.7900000000000000    0.7900000000000000 F-
   0.7900000000000000    0.2100000000000000    0.7900000000000000 F-
   0.7900000000000000    0.2100000000000000    0.2100000000000000 F-
   0.2100000000000000    0.7900000000000000    0.2100000000000000 F-
   0.2100000000000000    0.2100000000000000    0.7900000000000000 F-
