Cs2 Si1 F6
1.0
   4.9050522846032898    0.0000000000000000    2.8319332569048994
   1.6350174282010967    4.6245276433567382    2.8319332569048994
   0.0000000000000000    0.0000000000000000    5.6638665138097970
Cs Si F
2 1 6
direct
   0.7500000000000000    0.7500000000000000    0.7500000000000000 Cs+
   0.2500000000000000    0.2500000000000000    0.2500000000000000 Cs+
   0.0000000000000000    0.0000000000000000    0.0000000000000000 Si4+
   0.7900000000000000    0.7900000000000000    0.2100000000000000 F-
   0.2100000000000000    0.7900000000000000    0.7900000000000000 F-
   0.7900000000000000    0.2100000000000000    0.7900000000000000 F-
   0.7900000000000000    0.2100000000000000    0.2100000000000000 F-
   0.2100000000000000    0.7900000000000000    0.2100000000000000 F-
   0.2100000000000000    0.2100000000000000    0.7900000000000000 F-
