Cs2 Si1 F6
1.0
   3.8724096983710186    0.0000000000000000    2.2357367817670259
   1.2908032327903396    3.6509428763342675    2.2357367817670259
   0.0000000000000000    0.0000000000000000    4.4714735635340501
Cs Si F
2 1 6
direct
   0.7500000000000000    0.7500000000000000    0.7500000000000000 Cs+
   0.2500000000000000    0.2500000000000000    0.2500000000000000 Cs+
   0.0000000000000000    0.0000000000000000    0.0000000000000000 Si4+
   0.7900000000000000    0.7900000000000000    0.2100000000000000 F-
   0.2100000000000000    0.7900000000000000    0.7900000000000000 F-
   0.7900000000000000    0.2100000000000000    0.7900000000000000 F-
   0.7900000000000000    0.2100000000000000    0.2100000000000000 F-
   0.2100000000000000    0.7900000000000000    0.2100000000000000 F-
   0.2100000000000000    0.2100000000000000    0.7900000000000000 F-
