Ba2 Ce1 Pt1 O6
1.0
   5.2404014189602428    0.0000000000000000    3.0255471698983936
   1.7468004729867479    4.9406978393151917    3.0255471698983936
   0.0000000000000000    0.0000000000000000    6.0510943397967862
Ba Ce Pt O
2 1 1 6
direct
   0.7500000000000000    0.7500000000000000    0.7500000000000000 Ba2+
   0.2500000000000000    0.2500000000000000    0.2500000000000000 Ba2+
   0.5000000000000000    0.5000000000000000    0.5000000000000000 Ce4+
   0.0000000000000000    0.0000000000000000    0.0000000000000000 Pt4+
   0.7520000000000000    0.7520000000000000    0.2480000000000000 O2-
   0.2480000000000000    0.7520000000000000    0.7520000000000000 O2-
   0.7520000000000000    0.2480000000000000    0.7520000000000000 O2-
   0.7520000000000000    0.2480000000000000    0.2480000000000000 O2-
   0.2480000000000000    0.7520000000000000    0.2480000000000000 O2-
   0.2480000000000000    0.2480000000000000    0.7520000000000000 O2-
