Li6 B2 N4
1.0
   7.5030344176443062    0.0000000000000000    0.0000000000000005
   0.0000000000000012    7.5030344176443062    0.0000000000000005
   0.0000000000000000    0.0000000000000000    8.4978913770377797
Li B N
6 2 4
direct
   0.0000000000000000    0.5000000000000000    0.2500000000000000 Li
   0.0000000000000000    0.5000000000000000    0.7500000000000000 Li
   0.5000000000000000    0.0000000000000000    0.2500000000000000 Li
   0.5000000000000000    0.0000000000000000    0.7500000000000000 Li
   0.0000000000000000    0.0000000000000000    0.5000000000000000 Li
   0.5000000000000000    0.5000000000000000    0.0000000000000000 Li
   0.0000000000000000    0.0000000000000000    0.0000000000000000 B
   0.5000000000000000    0.5000000000000000    0.5000000000000000 B
   0.2962000000000000    0.2962000000000000    0.5000000000000000 N
   0.2038000000000000    0.7962000000000000    0.0000000000000000 N
   0.7038000000000000    0.7038000000000000    0.5000000000000000 N
   0.7962000000000000    0.2038000000000000    0.0000000000000000 N
