Li6 B2 N4
1.0
   5.4021847807039007    0.0000000000000000    0.0000000000000003
   0.0000000000000009    5.4021847807039007    0.0000000000000003
   0.0000000000000000    0.0000000000000000    6.1184817914672012
Li B N
6 2 4
direct
   0.0000000000000000    0.5000000000000000    0.2500000000000000 Li
   0.0000000000000000    0.5000000000000000    0.7500000000000000 Li
   0.5000000000000000    0.0000000000000000    0.2500000000000000 Li
   0.5000000000000000    0.0000000000000000    0.7500000000000000 Li
   0.0000000000000000    0.0000000000000000    0.5000000000000000 Li
   0.5000000000000000    0.5000000000000000    0.0000000000000000 Li
   0.0000000000000000    0.0000000000000000    0.0000000000000000 B
   0.5000000000000000    0.5000000000000000    0.5000000000000000 B
   0.2962000000000000    0.2962000000000000    0.5000000000000000 N
   0.2038000000000000    0.7962000000000000    0.0000000000000000 N
   0.7038000000000000    0.7038000000000000    0.5000000000000000 N
   0.7962000000000000    0.2038000000000000    0.0000000000000000 N
