Ho3 Mg2 Zn1 Ga2 Hg1
1.0
   7.0742779999999996    0.0000000000000000    0.0000000000000004
  -3.5371390024343903    6.2956400043489378    0.0000000000000004
   0.0000000000000000    0.0000000000000000    4.4716240000000003
Ho Mg Zn Ga Hg
3 2 1 2 1
direct
   0.5614600000000000    0.0000000000000000    0.0000000000000000 Ho
   0.9980240000000000    0.5721790000000000    0.0000000000000000 Ho
   0.4258460000000000    0.4278210000000000    0.0000000000000000 Ho
   0.0054390000000000    0.2443830000000000    0.5000000000000000 Mg
   0.7610560000000000    0.7556170000000000    0.5000000000000000 Mg
   0.2548460000000000    0.0000000000000000    0.5000000000000000 Zn
   0.3294820000000000    0.6720440000000000    0.5000000000000000 Ga
   0.6574400000000000    0.3279560000000000    0.5000000000000000 Ga
   0.0064060000000000    0.0000000000000000    0.0000000000000000 Hg
