Dy1 Ho3 Tm6 Sn6
1.0
   6.4615109999937310    0.0000000000000000   -0.0000090005441471
   0.0000190013177666    7.6970013332258294   -4.4384194610190111
   0.0000000000000000    0.0000000000000000    8.8931861100000003
Dy Ho Tm Sn
1 3 6 6
direct
   0.2499940000000000    0.7611660000000000    0.0000000000000000 Dy
   0.7500030000000000    0.2388740000000000    0.0000000000000000 Ho
   0.7499990000000000    0.7607190000000000    0.7605820000000000 Ho
   0.7499990000000000    0.0001360000000000    0.2394180000000000 Ho
   0.4998930000000000    0.3332400000000000    0.6666666666666666 Tm
   0.4998930000000000    0.6666666666666666    0.3333760000000000 Tm
   0.0001080000000000    0.6666666666666666    0.3333770000000000 Tm
   0.0001080000000000    0.3332510000000000    0.6666666666666666 Tm
   0.2499970000000000    0.2393080000000000    0.2390810000000000 Tm
   0.2499970000000000    0.0002260000000000    0.7609190000000000 Tm
   0.7500000000000000    0.6046680000000000    0.0000000000000000 Sn
   0.7500019999999999    0.3953040000000000    0.3952840000000000 Sn
   0.7500019999999999    0.0000200000000000    0.6047160000000000 Sn
   0.2499990000000000    0.3943570000000000    0.0000000000000000 Sn
   0.2500020000000000    0.6049600000000001    0.6044340000000000 Sn
   0.2500020000000000    0.0005280000000000    0.3955660000000000 Sn
