Ti4 Al2 W4 C6
1.0
   3.0199710000000000    0.0000000000000000    0.0000000000000002
  -1.5099840018184285    2.6153710031979549    0.0000000000000002
   0.0000000000000000    0.0000000000000000   23.7936809999999994
Ti Al W C
4 2 4 6
direct
   0.3333333333333333    0.6666666666666666    0.4468800000000000 Ti
   0.6666666666666666    0.3333333333333333    0.5531199999999999 Ti
   0.6666666666666666    0.3333333333333333    0.9468800000000001 Ti
   0.3333333333333333    0.6666666666666666    0.0531200000000000 Ti
   0.3333333333333333    0.6666666666666666    0.2500000000000000 Al
   0.6666666666666666    0.3333333333333333    0.7500000000000000 Al
   0.0000000000000000    0.0000000000000000    0.3417790000000000 W
   0.0000000000000000    0.0000000000000000    0.6582209999999999 W
   0.0000000000000000    0.0000000000000000    0.8417790000000001 W
   0.0000000000000000    0.0000000000000000    0.1582210000000000 W
   0.0000000000000000    0.0000000000000000    0.5000000000000000 C
   0.0000000000000000    0.0000000000000000    0.0000000000000000 C
   0.6666666666666666    0.3333333333333333    0.3928440000000000 C
   0.3333333333333333    0.6666666666666666    0.6071560000000000 C
   0.3333333333333333    0.6666666666666666    0.8928440000000000 C
   0.6666666666666666    0.3333333333333333    0.1071560000000000 C
