La2 Ni2 B2 N2
1.0
   3.3466054610691454    0.0000000000000000    0.0000000000000002
   0.0000000000000005    3.3466054610691454    0.0000000000000002
   0.0000000000000000    0.0000000000000000    6.8547093089995368
La Ni B N
2 2 2 2
direct
   0.2500000000000000    0.2500000000000000    0.1700000000000000 La
   0.7500000000000000    0.7500000000000000    0.8300000000000000 La
   0.7500000000000000    0.2500000000000000    0.5000000000000000 Ni
   0.2500000000000000    0.7500000000000000    0.5000000000000000 Ni
   0.7500000000000000    0.7500000000000000    0.4400000000000000 B
   0.2500000000000000    0.2500000000000000    0.5600000000000001 B
   0.7500000000000000    0.7500000000000000    0.1800000000000000 N
   0.2500000000000000    0.2500000000000000    0.8200000000000000 N
