Cs2 Ge1 F6
1.0
   5.9798168345694345    0.0000000000000000    3.4524488591433204
   1.9932722781898118    5.6378253786366965    3.4524488591433204
   0.0000000000000000    0.0000000000000000    6.9048977182866382
Cs Ge F
2 1 6
direct
   0.7500000000000000    0.7500000000000000    0.7500000000000000 Cs+
   0.2500000000000000    0.2500000000000000    0.2500000000000000 Cs+
   0.0000000000000000    0.0000000000000000    0.0000000000000000 Ge4+
   0.8000000000000000    0.8000000000000000    0.2000000000000000 F-
   0.2000000000000000    0.8000000000000000    0.8000000000000000 F-
   0.8000000000000000    0.2000000000000000    0.8000000000000000 F-
   0.8000000000000000    0.2000000000000000    0.2000000000000000 F-
   0.2000000000000000    0.8000000000000000    0.2000000000000000 F-
   0.2000000000000000    0.2000000000000000    0.8000000000000000 F-
