Cs2 Ge1 F6
1.0
   5.4103104693723454    0.0000000000000000    3.1236442058915754
   1.8034368231241154    5.1008896282903446    3.1236442058915754
   0.0000000000000000    0.0000000000000000    6.2472884117831491
Cs Ge F
2 1 6
direct
   0.7500000000000000    0.7500000000000000    0.7500000000000000 Cs+
   0.2500000000000000    0.2500000000000000    0.2500000000000000 Cs+
   0.0000000000000000    0.0000000000000000    0.0000000000000000 Ge4+
   0.8000000000000000    0.8000000000000000    0.2000000000000000 F-
   0.2000000000000000    0.8000000000000000    0.8000000000000000 F-
   0.8000000000000000    0.2000000000000000    0.8000000000000000 F-
   0.8000000000000000    0.2000000000000000    0.2000000000000000 F-
   0.2000000000000000    0.8000000000000000    0.2000000000000000 F-
   0.2000000000000000    0.2000000000000000    0.8000000000000000 F-
