Cs2 Ge1 F6
1.0
   5.6950636519708899    0.0000000000000000    3.2880465325174479
   1.8983545506569635    5.3693575034635206    3.2880465325174479
   0.0000000000000000    0.0000000000000000    6.5760930650348941
Cs Ge F
2 1 6
direct
   0.7500000000000000    0.7500000000000000    0.7500000000000000 Cs+
   0.2500000000000000    0.2500000000000000    0.2500000000000000 Cs+
   0.0000000000000000    0.0000000000000000    0.0000000000000000 Ge4+
   0.8000000000000000    0.8000000000000000    0.2000000000000000 F-
   0.2000000000000000    0.8000000000000000    0.8000000000000000 F-
   0.8000000000000000    0.2000000000000000    0.8000000000000000 F-
   0.8000000000000000    0.2000000000000000    0.2000000000000000 F-
   0.2000000000000000    0.8000000000000000    0.2000000000000000 F-
   0.2000000000000000    0.2000000000000000    0.8000000000000000 F-
