La3 Ni2 B2 N3
1.0
   2.6024470588533353    0.0000000000000000   -0.4621593944361869
  -0.0820732568368686    2.6011525665840063   -0.4621593944361869
   0.0000000000000000    0.0000000000000000    7.5583468497887090
La Ni B N
3 2 2 3
direct
   0.6280000000000000    0.6280000000000000    0.2560000000000000 La
   0.3720000000000000    0.3720000000000000    0.7440000000000000 La
   0.0000000000000000    0.0000000000000000    0.0000000000000000 La
   0.7500000000000000    0.2500000000000000    0.5000000000000000 Ni
   0.2500000000000000    0.7500000000000000    0.5000000000000000 Ni
   0.2210000000000000    0.2210000000000000    0.4420000000000000 B
   0.7790000000000000    0.7790000000000000    0.5580000000000001 B
   0.1330000000000000    0.1330000000000000    0.2660000000000000 N
   0.8670000000000000    0.8670000000000000    0.7340000000000000 N
   0.5000000000000000    0.5000000000000000    0.0000000000000000 N
