La3 Ni2 B2 N3
1.0
   2.9494400000337797    0.0000000000000000   -0.5237806470276786
  -0.0930163577484511    2.9479729087952071   -0.5237806470276786
   0.0000000000000000    0.0000000000000000    8.5661264297605371
La Ni B N
3 2 2 3
direct
   0.6280000000000000    0.6280000000000000    0.2560000000000000 La
   0.3720000000000000    0.3720000000000000    0.7440000000000000 La
   0.0000000000000000    0.0000000000000000    0.0000000000000000 La
   0.7500000000000000    0.2500000000000000    0.5000000000000000 Ni
   0.2500000000000000    0.7500000000000000    0.5000000000000000 Ni
   0.2210000000000000    0.2210000000000000    0.4420000000000000 B
   0.7790000000000000    0.7790000000000000    0.5580000000000001 B
   0.1330000000000000    0.1330000000000000    0.2660000000000000 N
   0.8670000000000000    0.8670000000000000    0.7340000000000000 N
   0.5000000000000000    0.5000000000000000    0.0000000000000000 N
