Rb2 Sn1 Cl6
1.0
   6.3788795384978618    0.0000000000000000    3.6828478186799369
   2.1262931794992879    6.0140653040586036    3.6828478186799369
   0.0000000000000000    0.0000000000000000    7.3656956373598721
Rb Sn Cl
2 1 6
direct
   0.7500000000000000    0.7500000000000000    0.7500000000000000 Rb+
   0.2500000000000000    0.2500000000000000    0.2500000000000000 Rb+
   0.0000000000000000    0.0000000000000000    0.0000000000000000 Sn4+
   0.7600000000000000    0.7600000000000000    0.2400000000000000 Cl-
   0.2400000000000000    0.7600000000000000    0.7600000000000000 Cl-
   0.7600000000000000    0.2400000000000000    0.7600000000000000 Cl-
   0.7600000000000000    0.2400000000000000    0.2400000000000000 Cl-
   0.2400000000000000    0.7600000000000000    0.2400000000000000 Cl-
   0.2400000000000000    0.2400000000000000    0.7600000000000000 Cl-
