Rb2 Sn1 Cl6
1.0
   5.4220476077231829    0.0000000000000000    3.1304206458779467
   1.8073492025743947    5.1119555084498129    3.1304206458779467
   0.0000000000000000    0.0000000000000000    6.2608412917558924
Rb Sn Cl
2 1 6
direct
   0.7500000000000000    0.7500000000000000    0.7500000000000000 Rb+
   0.2500000000000000    0.2500000000000000    0.2500000000000000 Rb+
   0.0000000000000000    0.0000000000000000    0.0000000000000000 Sn4+
   0.7600000000000000    0.7600000000000000    0.2400000000000000 Cl-
   0.2400000000000000    0.7600000000000000    0.7600000000000000 Cl-
   0.7600000000000000    0.2400000000000000    0.7600000000000000 Cl-
   0.7600000000000000    0.2400000000000000    0.2400000000000000 Cl-
   0.2400000000000000    0.7600000000000000    0.2400000000000000 Cl-
   0.2400000000000000    0.2400000000000000    0.7600000000000000 Cl-
