Rb2 Sn1 Cl6
1.0
   4.7841596538733961    0.0000000000000000    2.7621358640099531
   1.5947198846244659    4.5105489780439525    2.7621358640099531
   0.0000000000000000    0.0000000000000000    5.5242717280199045
Rb Sn Cl
2 1 6
direct
   0.7500000000000000    0.7500000000000000    0.7500000000000000 Rb+
   0.2500000000000000    0.2500000000000000    0.2500000000000000 Rb+
   0.0000000000000000    0.0000000000000000    0.0000000000000000 Sn4+
   0.7600000000000000    0.7600000000000000    0.2400000000000000 Cl-
   0.2400000000000000    0.7600000000000000    0.7600000000000000 Cl-
   0.7600000000000000    0.2400000000000000    0.7600000000000000 Cl-
   0.7600000000000000    0.2400000000000000    0.2400000000000000 Cl-
   0.2400000000000000    0.7600000000000000    0.2400000000000000 Cl-
   0.2400000000000000    0.2400000000000000    0.7600000000000000 Cl-
