Ca3 B1 N3
1.0
   3.1793307333325362    0.0000000000000000    0.0000000000000002
   0.0000000000000005    3.1793307333325362    0.0000000000000002
   0.0000000000000000    0.0000000000000000    7.3572296476306196
Ca B N
3 1 3
direct
   0.5000000000000000    0.5000000000000000    0.2778000000000000 Ca
   0.5000000000000000    0.5000000000000000    0.7222000000000000 Ca
   0.0000000000000000    0.0000000000000000    0.0000000000000000 Ca
   0.0000000000000000    0.0000000000000000    0.5000000000000000 B
   0.0000000000000000    0.0000000000000000    0.3354000000000000 N
   0.0000000000000000    0.0000000000000000    0.6646000000000000 N
   0.5000000000000000    0.5000000000000000    0.0000000000000000 N
