Ca3 B1 N3
1.0
   4.7689960999988052    0.0000000000000000    0.0000000000000003
   0.0000000000000008    4.7689960999988052    0.0000000000000003
   0.0000000000000000    0.0000000000000000   11.0358444714459303
Ca B N
3 1 3
direct
   0.5000000000000000    0.5000000000000000    0.2778000000000000 Ca
   0.5000000000000000    0.5000000000000000    0.7222000000000000 Ca
   0.0000000000000000    0.0000000000000000    0.0000000000000000 Ca
   0.0000000000000000    0.0000000000000000    0.5000000000000000 B
   0.0000000000000000    0.0000000000000000    0.3354000000000000 N
   0.0000000000000000    0.0000000000000000    0.6646000000000000 N
   0.5000000000000000    0.5000000000000000    0.0000000000000000 N
