Tb9 Y3 Os2 Rh2
1.0
   6.4240485597205010    0.0000000000000000    0.0000599252032706
  -0.0677549949462795    7.3245464978981634    0.0119135134268496
   0.0000000000000000    0.0000000000000000    9.2095940100000000
Tb Y Os Rh
9 3 2 2
direct
   0.6338290000000000    0.0374840000000000    0.2503410000000000 Tb
   0.3661390000000000    0.9629140000000000    0.7499940000000000 Tb
   0.1284850000000000    0.4619020000000000    0.7500329999999999 Tb
   0.8715700000000000    0.5382610000000000    0.2500290000000000 Tb
   0.1755270000000000    0.1792630000000000    0.0663790000000000 Tb
   0.8245930000000000    0.8208640000000000    0.9340870000000000 Tb
   0.6675790000000000    0.3262770000000000    0.9384510000000000 Tb
   0.8246160000000000    0.8208180000000000    0.5662020000000000 Tb
   0.3325690000000000    0.6735250000000000    0.0615150000000000 Tb
   0.1754520000000000    0.1795850000000000    0.4340640000000000 Y
   0.3328220000000000    0.6729060000000000    0.4391270000000000 Y
   0.6671850000000000    0.3269160000000000    0.5606590000000000 Y
   0.4652630000000000    0.3833860000000000    0.2494020000000000 Os
   0.5351370000000000    0.6169530000000000    0.7502580000000000 Os
   0.9532590000000000    0.1143640000000000    0.7503120000000000 Rh
   0.0459740000000000    0.8845830000000000    0.2491490000000000 Rh
