Tb2 Th1 Pt9
1.0
   4.1546599999999998    0.0000000000000000    0.0000000000000003
   0.0000000000000007    4.1546599999999998    0.0000000000000003
   0.0000000000000000    0.0000000000000000   12.4102870000000003
Tb Th Pt
2 1 9
direct
   0.0000000000000000    0.0000000000000000    0.3368470000000000 Tb
   0.0000000000000000    0.0000000000000000    0.6631530000000000 Tb
   0.0000000000000000    0.0000000000000000    0.0000000000000000 Th
   0.5000000000000000    0.5000000000000000    0.0000000000000000 Pt
   0.5000000000000000    0.5000000000000000    0.3350130000000000 Pt
   0.5000000000000000    0.5000000000000000    0.6649870000000000 Pt
   0.5000000000000000    0.0000000000000000    0.1702940000000000 Pt
   0.5000000000000000    0.0000000000000000    0.5000000000000000 Pt
   0.5000000000000000    0.0000000000000000    0.8297060000000001 Pt
   0.0000000000000000    0.5000000000000000    0.1702940000000000 Pt
   0.0000000000000000    0.5000000000000000    0.5000000000000000 Pt
   0.0000000000000000    0.5000000000000000    0.8297060000000001 Pt
