Zr1 Co1 F6
1.0
   3.2902672200187348    0.0000000000000000    1.8996366651836185
   1.0967557400062451    3.1020936842547431    1.8996366651836185
   0.0000000000000000    0.0000000000000000    3.7992733303672366
Zr Co F
1 1 6
direct
   0.5000000000000000    0.5000000000000000    0.5000000000000000 Zr4+
   0.0000000000000000    0.0000000000000000    0.0000000000000000 Co2+
   0.7480000000000000    0.7480000000000000    0.2520000000000000 F-
   0.2520000000000000    0.7480000000000000    0.7480000000000000 F-
   0.7480000000000000    0.2520000000000000    0.7480000000000000 F-
   0.7480000000000000    0.2520000000000000    0.2520000000000000 F-
   0.2520000000000000    0.7480000000000000    0.2520000000000000 F-
   0.2520000000000000    0.2520000000000000    0.7480000000000000 F-
