Zr1 Co1 F6
1.0
   3.0371697415557546    0.0000000000000000    1.7535107678618014
   1.0123899138519183    2.8634710931582239    1.7535107678618014
   0.0000000000000000    0.0000000000000000    3.5070215357236023
Zr Co F
1 1 6
direct
   0.5000000000000000    0.5000000000000000    0.5000000000000000 Zr4+
   0.0000000000000000    0.0000000000000000    0.0000000000000000 Co2+
   0.7480000000000000    0.7480000000000000    0.2520000000000000 F-
   0.2520000000000000    0.7480000000000000    0.7480000000000000 F-
   0.7480000000000000    0.2520000000000000    0.7480000000000000 F-
   0.7480000000000000    0.2520000000000000    0.2520000000000000 F-
   0.2520000000000000    0.7480000000000000    0.2520000000000000 F-
   0.2520000000000000    0.2520000000000000    0.7480000000000000 F-
