Cs2 Ge1 F6
1.0
   6.2645700171679799    0.0000000000000000    3.6168511857691934
   2.0881900057226601    5.9062932538098734    3.6168511857691934
   0.0000000000000000    0.0000000000000000    7.2337023715383850
Cs Ge F
2 1 6
direct
   0.7500000000000000    0.7500000000000000    0.7500000000000000 Cs+
   0.2500000000000000    0.2500000000000000    0.2500000000000000 Cs+
   0.0000000000000000    0.0000000000000000    0.0000000000000000 Ge4+
   0.8000000000000000    0.8000000000000000    0.2000000000000000 F-
   0.2000000000000000    0.8000000000000000    0.8000000000000000 F-
   0.8000000000000000    0.2000000000000000    0.8000000000000000 F-
   0.8000000000000000    0.2000000000000000    0.2000000000000000 F-
   0.2000000000000000    0.8000000000000000    0.2000000000000000 F-
   0.2000000000000000    0.2000000000000000    0.8000000000000000 F-
