Cs2 Ge1 F6
1.0
   4.8408041041752563    0.0000000000000000    2.7948395526398309
   1.6136013680584191    4.5639538779439928    2.7948395526398309
   0.0000000000000000    0.0000000000000000    5.5896791052796599
Cs Ge F
2 1 6
direct
   0.7500000000000000    0.7500000000000000    0.7500000000000000 Cs+
   0.2500000000000000    0.2500000000000000    0.2500000000000000 Cs+
   0.0000000000000000    0.0000000000000000    0.0000000000000000 Ge4+
   0.8000000000000000    0.8000000000000000    0.2000000000000000 F-
   0.2000000000000000    0.8000000000000000    0.8000000000000000 F-
   0.8000000000000000    0.2000000000000000    0.8000000000000000 F-
   0.8000000000000000    0.2000000000000000    0.2000000000000000 F-
   0.2000000000000000    0.8000000000000000    0.2000000000000000 F-
   0.2000000000000000    0.2000000000000000    0.8000000000000000 F-
