Sc6 As5 Se1
1.0
   3.3508946854381580    0.0000000000000000    1.9344367060015339
   0.0061281329073726    9.5241907356811311   -0.0075755672460970
   0.0000000000000000    0.0000000000000000    7.7349460099999998
Sc As Se
6 5 1
direct
   0.9389810000000000    0.8954700000000000    0.6531600000000000 Sc
   0.2708080000000000    0.2344310000000000    0.3253740000000000 Sc
   0.6065120000000001    0.5649650000000001    0.9886970000000000 Sc
   0.2793570000000000    0.2383830000000000    0.8166140000000000 Sc
   0.6063130000000000    0.5650070000000000    0.4886540000000000 Sc
   0.9300380000000000    0.8917110000000000    0.1618870000000000 Sc
   0.2704140000000000    0.7312670000000000    0.3227630000000000 As
   0.9406850000000000    0.3987010000000000    0.6551439999999999 As
   0.6046100000000000    0.0649380000000000    0.4894130000000000 As
   0.9415780000000000    0.3968980000000000    0.1544280000000000 As
   0.2699060000000000    0.7329940000000000    0.8235960000000000 As
   0.6043070000000000    0.0649660000000000    0.9893620000000000 Se
