Mn1 Nb1 F6
1.0
   5.3584683054051698    0.0000000000000000    2.8597243230530913
   1.9161407892863871    5.0041569775202586    2.8597243230530913
   0.0000000000000000    0.0000000000000000    6.4501332348342464
Mn Nb F
1 1 6
direct
   0.5000000000000000    0.5000000000000000    0.5000000000000000 Mn
   0.0000000000000000    0.0000000000000000    0.0000000000000000 Nb
   0.7608000000000000    0.1392000000000000    0.7573000000000000 F
   0.1392000000000000    0.3427000000000000    0.7573000000000000 F
   0.3427000000000000    0.7608000000000000    0.7573000000000000 F
   0.2392000000000000    0.8608000000000000    0.2427000000000000 F
   0.8608000000000000    0.6573000000000000    0.2427000000000000 F
   0.6573000000000000    0.2392000000000000    0.2427000000000000 F
