Mn1 Nb1 F6
1.0
   4.3842013407860474    0.0000000000000000    2.3397744461343470
   1.5677515548706804    4.0943102543347569    2.3397744461343470
   0.0000000000000000    0.0000000000000000    5.2773817375916563
Mn Nb F
1 1 6
direct
   0.5000000000000000    0.5000000000000000    0.5000000000000000 Mn
   0.0000000000000000    0.0000000000000000    0.0000000000000000 Nb
   0.7608000000000000    0.1392000000000000    0.7573000000000000 F
   0.1392000000000000    0.3427000000000000    0.7573000000000000 F
   0.3427000000000000    0.7608000000000000    0.7573000000000000 F
   0.2392000000000000    0.8608000000000000    0.2427000000000000 F
   0.8608000000000000    0.6573000000000000    0.2427000000000000 F
   0.6573000000000000    0.2392000000000000    0.2427000000000000 F
