Co1 B2 Mo1 W1
1.0
   3.9492427811940969    0.0000000000000000   -2.2113939257883772
  -0.6545461283046572    2.9040280929317257   -3.4095401797224856
   0.0000000000000000    0.0000000000000000    4.5262330500000001
Co B Mo W
1 2 1 1
direct
   0.9991860000000000    0.9991860000000000    0.0000000000000000 Co
   0.7045610000000000    0.4999840000000000    0.2045780000000000 B
   0.2954060000000000    0.4999840000000000    0.7954220000000000 B
   0.2993660000000000    0.7993660000000000    0.5000000000000000 Mo
   0.7014810000000000    0.2014810000000000    0.5000000000000000 W
