Cs2 Si1 F6
1.0
   6.1958555173936292    0.0000000000000000    3.5771788508272406
   2.0652851724645429    5.8415086021348266    3.5771788508272406
   0.0000000000000000    0.0000000000000000    7.1543577016544795
Cs Si F
2 1 6
direct
   0.7500000000000000    0.7500000000000000    0.7500000000000000 Cs+
   0.2500000000000000    0.2500000000000000    0.2500000000000000 Cs+
   0.0000000000000000    0.0000000000000000    0.0000000000000000 Si4+
   0.7900000000000000    0.7900000000000000    0.2100000000000000 F-
   0.2100000000000000    0.7900000000000000    0.7900000000000000 F-
   0.7900000000000000    0.2100000000000000    0.7900000000000000 F-
   0.7900000000000000    0.2100000000000000    0.2100000000000000 F-
   0.2100000000000000    0.7900000000000000    0.2100000000000000 F-
   0.2100000000000000    0.2100000000000000    0.7900000000000000 F-
