Cs2 Si1 F6
1.0
   6.4540161639516969    0.0000000000000000    3.7262279696117093
   2.1513387213172326    6.0849047938904448    3.7262279696117093
   0.0000000000000000    0.0000000000000000    7.4524559392234169
Cs Si F
2 1 6
direct
   0.7500000000000000    0.7500000000000000    0.7500000000000000 Cs+
   0.2500000000000000    0.2500000000000000    0.2500000000000000 Cs+
   0.0000000000000000    0.0000000000000000    0.0000000000000000 Si4+
   0.7900000000000000    0.7900000000000000    0.2100000000000000 F-
   0.2100000000000000    0.7900000000000000    0.7900000000000000 F-
   0.7900000000000000    0.2100000000000000    0.7900000000000000 F-
   0.7900000000000000    0.2100000000000000    0.2100000000000000 F-
   0.2100000000000000    0.7900000000000000    0.2100000000000000 F-
   0.2100000000000000    0.2100000000000000    0.7900000000000000 F-
