Th2 Cd2 P2 Ru2 Pt2
1.0
   4.0862210000000001    0.0000000000000000    0.0000000000000003
   0.0000000000000007    4.0862210000000001    0.0000000000000003
   0.0000000000000000    0.0000000000000000   11.4714100000000006
Th Cd P Ru Pt
2 2 2 2 2
direct
   0.0000000000000000    0.5000000000000000    0.7784780000000000 Th
   0.5000000000000000    0.0000000000000000    0.2215220000000000 Th
   0.0000000000000000    0.0000000000000000    0.5000000000000000 Cd
   0.5000000000000000    0.5000000000000000    0.5000000000000000 Cd
   0.5000000000000000    0.0000000000000000    0.8938270000000000 P
   0.0000000000000000    0.5000000000000000    0.1061730000000000 P
   0.5000000000000000    0.5000000000000000    0.0000000000000000 Ru
   0.0000000000000000    0.0000000000000000    0.0000000000000000 Ru
   0.0000000000000000    0.5000000000000000    0.3168910000000000 Pt
   0.5000000000000000    0.0000000000000000    0.6831090000000000 Pt
