Ta2 Ag2 S6
1.0
   3.1804028125223915    0.0000000000000000    0.0000000000000002
  -1.5902014058180705    6.6240568589623461    0.0000000000000004
   0.0000000000000000    0.0000000000000000    7.3007463288730561
Ta Ag S
2 2 6
direct
   0.2621000000000000    0.5242000000000000    0.9880000000000000 Ta
   0.7379000000000000    0.4758000000000000    0.4880000000000000 Ta
   0.9980000000000000    0.9960000000000000    0.2500000000000000 Ag
   0.0020000000000000    0.0040000000000000    0.7500000000000000 Ag
   0.8930000000000000    0.7860000000000000    0.9850000000000000 S
   0.1070000000000000    0.2140000000000000    0.4850000000000000 S
   0.6750000000000000    0.3500000000000000    0.1640000000000000 S
   0.3250000000000000    0.6500000000000000    0.6640000000000000 S
   0.6680000000000000    0.3360000000000000    0.8139999999999999 S
   0.3320000000000000    0.6640000000000000    0.3140000000000000 S
