Ta2 Ag2 S6
1.0
   4.2405370833631881    0.0000000000000000    0.0000000000000003
  -2.1202685410907605    8.8320758119497942    0.0000000000000006
   0.0000000000000000    0.0000000000000000    9.7343284384974069
Ta Ag S
2 2 6
direct
   0.2621000000000000    0.5242000000000000    0.9880000000000000 Ta
   0.7379000000000000    0.4758000000000000    0.4880000000000000 Ta
   0.9980000000000000    0.9960000000000000    0.2500000000000000 Ag
   0.0020000000000000    0.0040000000000000    0.7500000000000000 Ag
   0.8930000000000000    0.7860000000000000    0.9850000000000000 S
   0.1070000000000000    0.2140000000000000    0.4850000000000000 S
   0.6750000000000000    0.3500000000000000    0.1640000000000000 S
   0.3250000000000000    0.6500000000000000    0.6640000000000000 S
   0.6680000000000000    0.3360000000000000    0.8139999999999999 S
   0.3320000000000000    0.6640000000000000    0.3140000000000000 S
