Tl2 Sn1 Cl6
1.0
   7.3357114692725398    0.0000000000000000    4.2352749914819272
   2.4452371564241804    6.9161750996673934    4.2352749914819272
   0.0000000000000000    0.0000000000000000    8.4705499829638526
Tl Sn Cl
2 1 6
direct
   0.7500000000000000    0.7500000000000000    0.7500000000000000 Tl+
   0.2500000000000000    0.2500000000000000    0.2500000000000000 Tl+
   0.0000000000000000    0.0000000000000000    0.0000000000000000 Sn4+
   0.7600000000000000    0.7600000000000000    0.2400000000000000 Cl-
   0.2400000000000000    0.7600000000000000    0.7600000000000000 Cl-
   0.7600000000000000    0.2400000000000000    0.7600000000000000 Cl-
   0.7600000000000000    0.2400000000000000    0.2400000000000000 Cl-
   0.2400000000000000    0.7600000000000000    0.2400000000000000 Cl-
   0.2400000000000000    0.2400000000000000    0.7600000000000000 Cl-
