Tl2 Sn1 Cl6
1.0
   4.4652156769485023    0.0000000000000000    2.5779934730759555
   1.4884052256495011    4.2098457128410214    2.5779934730759555
   0.0000000000000000    0.0000000000000000    5.1559869461519101
Tl Sn Cl
2 1 6
direct
   0.7500000000000000    0.7500000000000000    0.7500000000000000 Tl+
   0.2500000000000000    0.2500000000000000    0.2500000000000000 Tl+
   0.0000000000000000    0.0000000000000000    0.0000000000000000 Sn4+
   0.7600000000000000    0.7600000000000000    0.2400000000000000 Cl-
   0.2400000000000000    0.7600000000000000    0.7600000000000000 Cl-
   0.7600000000000000    0.2400000000000000    0.7600000000000000 Cl-
   0.7600000000000000    0.2400000000000000    0.2400000000000000 Cl-
   0.2400000000000000    0.7600000000000000    0.2400000000000000 Cl-
   0.2400000000000000    0.2400000000000000    0.7600000000000000 Cl-
