Tl2 Sn1 Cl6
1.0
   6.0599355615729680    0.0000000000000000    3.4987054277459397
   2.0199785205243228    5.7133620388556725    3.4987054277459397
   0.0000000000000000    0.0000000000000000    6.9974108554918777
Tl Sn Cl
2 1 6
direct
   0.7500000000000000    0.7500000000000000    0.7500000000000000 Tl+
   0.2500000000000000    0.2500000000000000    0.2500000000000000 Tl+
   0.0000000000000000    0.0000000000000000    0.0000000000000000 Sn4+
   0.7600000000000000    0.7600000000000000    0.2400000000000000 Cl-
   0.2400000000000000    0.7600000000000000    0.7600000000000000 Cl-
   0.7600000000000000    0.2400000000000000    0.7600000000000000 Cl-
   0.7600000000000000    0.2400000000000000    0.2400000000000000 Cl-
   0.2400000000000000    0.7600000000000000    0.2400000000000000 Cl-
   0.2400000000000000    0.2400000000000000    0.7600000000000000 Cl-
