Tl2 Sn1 Cl6
1.0
   5.7409915846480750    0.0000000000000000    3.3145630368119434
   1.9136638615493589    5.4126587736527432    3.3145630368119434
   0.0000000000000000    0.0000000000000000    6.6291260736238851
Tl Sn Cl
2 1 6
direct
   0.7500000000000000    0.7500000000000000    0.7500000000000000 Tl+
   0.2500000000000000    0.2500000000000000    0.2500000000000000 Tl+
   0.0000000000000000    0.0000000000000000    0.0000000000000000 Sn4+
   0.7600000000000000    0.7600000000000000    0.2400000000000000 Cl-
   0.2400000000000000    0.7600000000000000    0.7600000000000000 Cl-
   0.7600000000000000    0.2400000000000000    0.7600000000000000 Cl-
   0.7600000000000000    0.2400000000000000    0.2400000000000000 Cl-
   0.2400000000000000    0.7600000000000000    0.2400000000000000 Cl-
   0.2400000000000000    0.2400000000000000    0.7600000000000000 Cl-
