Tl2 Sn1 Cl6
1.0
   7.0167674923476477    0.0000000000000000    4.0511326005479313
   2.3389224974492167    6.6154718344644641    4.0511326005479313
   0.0000000000000000    0.0000000000000000    8.1022652010958609
Tl Sn Cl
2 1 6
direct
   0.7500000000000000    0.7500000000000000    0.7500000000000000 Tl+
   0.2500000000000000    0.2500000000000000    0.2500000000000000 Tl+
   0.0000000000000000    0.0000000000000000    0.0000000000000000 Sn4+
   0.7600000000000000    0.7600000000000000    0.2400000000000000 Cl-
   0.2400000000000000    0.7600000000000000    0.7600000000000000 Cl-
   0.7600000000000000    0.2400000000000000    0.7600000000000000 Cl-
   0.7600000000000000    0.2400000000000000    0.2400000000000000 Cl-
   0.2400000000000000    0.7600000000000000    0.2400000000000000 Cl-
   0.2400000000000000    0.2400000000000000    0.7600000000000000 Cl-
