Th2 Co1 Si1 P3 Ir3
1.0
   4.1594660000000001    0.0000000000000000    0.0000000000000003
   0.0000000000000007    4.1594660000000001    0.0000000000000003
   0.0000000000000000    0.0000000000000000    9.5473149999999993
Th Co Si P Ir
2 1 1 3 3
direct
   0.0000000000000000    0.5000000000000000    0.2581640000000000 Th
   0.5000000000000000    0.0000000000000000    0.7407310000000000 Th
   0.0000000000000000    0.5000000000000000    0.6111700000000000 Co
   0.5000000000000000    0.0000000000000000    0.1372040000000000 Si
   0.0000000000000000    0.0000000000000000    0.5106140000000000 P
   0.5000000000000000    0.5000000000000000    0.5106140000000000 P
   0.0000000000000000    0.5000000000000000    0.8508740000000000 P
   0.0000000000000000    0.0000000000000000    0.9937670000000000 Ir
   0.5000000000000000    0.5000000000000000    0.9937670000000000 Ir
   0.5000000000000000    0.0000000000000000    0.3930950000000000 Ir
