Dy9 Y3 Tc2 Ir2
1.0
   6.3371615909090426    0.0000000000000000   -0.0085953369115956
  -0.0184482282847617    7.3710609355115713   -0.0073238823516311
   0.0000000000000000    0.0000000000000000    9.1864162599999997
Dy Y Tc Ir
9 3 2 2
direct
   0.1704880000000000    0.1764300000000000    0.4334230000000000 Dy
   0.6681220000000000    0.3242760000000000    0.5612600000000000 Dy
   0.8317550000000000    0.8244420000000000    0.9384800000000000 Dy
   0.6683430000000000    0.3241270000000000    0.9386550000000000 Dy
   0.8319569999999999    0.8241440000000000    0.5612340000000000 Dy
   0.3295050000000000    0.6765450000000000    0.4337680000000000 Dy
   0.1705140000000000    0.1762850000000000    0.0663790000000000 Dy
   0.8718540000000000    0.5394480000000000    0.2501410000000000 Dy
   0.6282260000000000    0.0395610000000000    0.2500680000000000 Dy
   0.3298930000000000    0.6768540000000000    0.0657070000000000 Y
   0.1323470000000000    0.4603210000000000    0.7497350000000000 Y
   0.3677500000000000    0.9604850000000000    0.7497380000000000 Y
   0.0349000000000000    0.8860290000000000    0.2506830000000000 Tc
   0.4642370000000000    0.3835740000000000    0.2511230000000000 Tc
   0.9508180000000001    0.1137180000000000    0.7499280000000000 Ir
   0.5492899999999999    0.6137570000000000    0.7496780000000000 Ir
