Mn1 Nb1 F6
1.0
   6.3327352700242905    0.0000000000000000    3.3796741999718347
   2.2645300237020938    5.9140037007057602    3.3796741999718347
   0.0000000000000000    0.0000000000000000    7.6228847320768365
Mn Nb F
1 1 6
direct
   0.5000000000000000    0.5000000000000000    0.5000000000000000 Mn
   0.0000000000000000    0.0000000000000000    0.0000000000000000 Nb
   0.7608000000000000    0.1392000000000000    0.7573000000000000 F
   0.1392000000000000    0.3427000000000000    0.7573000000000000 F
   0.3427000000000000    0.7608000000000000    0.7573000000000000 F
   0.2392000000000000    0.8608000000000000    0.2427000000000000 F
   0.8608000000000000    0.6573000000000000    0.2427000000000000 F
   0.6573000000000000    0.2392000000000000    0.2427000000000000 F
