Mn1 Nb1 F6
1.0
   6.8198687523338508    0.0000000000000000    3.6396491384312064
   2.4387246409099470    6.3689270622985106    3.6396491384312064
   0.0000000000000000    0.0000000000000000    8.2092604806981306
Mn Nb F
1 1 6
direct
   0.5000000000000000    0.5000000000000000    0.5000000000000000 Mn
   0.0000000000000000    0.0000000000000000    0.0000000000000000 Nb
   0.7608000000000000    0.1392000000000000    0.7573000000000000 F
   0.1392000000000000    0.3427000000000000    0.7573000000000000 F
   0.3427000000000000    0.7608000000000000    0.7573000000000000 F
   0.2392000000000000    0.8608000000000000    0.2427000000000000 F
   0.8608000000000000    0.6573000000000000    0.2427000000000000 F
   0.6573000000000000    0.2392000000000000    0.2427000000000000 F
