Mn1 Nb1 F6
1.0
   2.9228008938573646    0.0000000000000000    1.5598496307562313
   1.0451677032471201    2.7295401695565045    1.5598496307562313
   0.0000000000000000    0.0000000000000000    3.5182544917277703
Mn Nb F
1 1 6
direct
   0.5000000000000000    0.5000000000000000    0.5000000000000000 Mn
   0.0000000000000000    0.0000000000000000    0.0000000000000000 Nb
   0.7608000000000000    0.1392000000000000    0.7573000000000000 F
   0.1392000000000000    0.3427000000000000    0.7573000000000000 F
   0.3427000000000000    0.7608000000000000    0.7573000000000000 F
   0.2392000000000000    0.8608000000000000    0.2427000000000000 F
   0.8608000000000000    0.6573000000000000    0.2427000000000000 F
   0.6573000000000000    0.2392000000000000    0.2427000000000000 F
