Ca1 Fe2 O3
1.0
   8.8229792342203712    0.0000000000000000    0.0000000000000005
   0.0000000000000039   24.1539316095111936    0.0000000000000015
   0.0000000000000000    0.0000000000000000    9.0767577416218046
Ca Fe O
1 2 3
direct
   0.0000000000000000    0.1080800000000000    0.0237700000000000 Ca
   0.0000000000000000    0.0000000000000000    0.5000000000000000 Fe
   0.9463600000000000    0.2500000000000000    0.5685900000000000 Fe
   0.7500000000000000    0.0131000000000000    0.7500000000000000 O
   0.0000000000000000    0.1413000000000000    0.4317000000000000 O
   0.4021000000000000    0.2500000000000000    0.6254999999999999 O
