Ca1 Fe2 O3
1.0
   3.9213241040979421    0.0000000000000000    0.0000000000000002
   0.0000000000000017   10.7350807153383059    0.0000000000000007
   0.0000000000000000    0.0000000000000000    4.0341145518319124
Ca Fe O
1 2 3
direct
   0.0000000000000000    0.1080800000000000    0.0237700000000000 Ca
   0.0000000000000000    0.0000000000000000    0.5000000000000000 Fe
   0.9463600000000000    0.2500000000000000    0.5685900000000000 Fe
   0.7500000000000000    0.0131000000000000    0.7500000000000000 O
   0.0000000000000000    0.1413000000000000    0.4317000000000000 O
   0.4021000000000000    0.2500000000000000    0.6254999999999999 O
