Zr1 Co1 F6
1.0
   6.8336319185004486    0.0000000000000000    3.9453992276890539
   2.2778773061668165    6.4428099596060040    3.9453992276890539
   0.0000000000000000    0.0000000000000000    7.8907984553781061
Zr Co F
1 1 6
direct
   0.5000000000000000    0.5000000000000000    0.5000000000000000 Zr4+
   0.0000000000000000    0.0000000000000000    0.0000000000000000 Co2+
   0.7480000000000000    0.7480000000000000    0.2520000000000000 F-
   0.2520000000000000    0.7480000000000000    0.7480000000000000 F-
   0.7480000000000000    0.2520000000000000    0.7480000000000000 F-
   0.7480000000000000    0.2520000000000000    0.2520000000000000 F-
   0.2520000000000000    0.7480000000000000    0.2520000000000000 F-
   0.2520000000000000    0.2520000000000000    0.7480000000000000 F-
