Zr1 Co1 F6
1.0
   3.7964621769446936    0.0000000000000000    2.1918884598272519
   1.2654873923148979    3.5793388664477801    2.1918884598272519
   0.0000000000000000    0.0000000000000000    4.3837769196545029
Zr Co F
1 1 6
direct
   0.5000000000000000    0.5000000000000000    0.5000000000000000 Zr4+
   0.0000000000000000    0.0000000000000000    0.0000000000000000 Co2+
   0.7480000000000000    0.7480000000000000    0.2520000000000000 F-
   0.2520000000000000    0.7480000000000000    0.7480000000000000 F-
   0.7480000000000000    0.2520000000000000    0.7480000000000000 F-
   0.7480000000000000    0.2520000000000000    0.2520000000000000 F-
   0.2520000000000000    0.7480000000000000    0.2520000000000000 F-
   0.2520000000000000    0.2520000000000000    0.7480000000000000 F-
