Zr1 Co1 F6
1.0
   5.3150470477225706    0.0000000000000000    3.0686438437581529
   1.7716823492408571    5.0110744130268925    3.0686438437581529
   0.0000000000000000    0.0000000000000000    6.1372876875163049
Zr Co F
1 1 6
direct
   0.5000000000000000    0.5000000000000000    0.5000000000000000 Zr4+
   0.0000000000000000    0.0000000000000000    0.0000000000000000 Co2+
   0.7480000000000000    0.7480000000000000    0.2520000000000000 F-
   0.2520000000000000    0.7480000000000000    0.7480000000000000 F-
   0.7480000000000000    0.2520000000000000    0.7480000000000000 F-
   0.7480000000000000    0.2520000000000000    0.2520000000000000 F-
   0.2520000000000000    0.7480000000000000    0.2520000000000000 F-
   0.2520000000000000    0.2520000000000000    0.7480000000000000 F-
