Ba2 Ce1 Pt1 O6
1.0
   6.8952650249476877    0.0000000000000000    3.9809831182873596
   2.2984216749825630    6.5009182096252518    3.9809831182873596
   0.0000000000000000    0.0000000000000000    7.9619662365747175
Ba Ce Pt O
2 1 1 6
direct
   0.7500000000000000    0.7500000000000000    0.7500000000000000 Ba2+
   0.2500000000000000    0.2500000000000000    0.2500000000000000 Ba2+
   0.5000000000000000    0.5000000000000000    0.5000000000000000 Ce4+
   0.0000000000000000    0.0000000000000000    0.0000000000000000 Pt4+
   0.7520000000000000    0.7520000000000000    0.2480000000000000 O2-
   0.2480000000000000    0.7520000000000000    0.7520000000000000 O2-
   0.7520000000000000    0.2480000000000000    0.7520000000000000 O2-
   0.7520000000000000    0.2480000000000000    0.2480000000000000 O2-
   0.2480000000000000    0.7520000000000000    0.2480000000000000 O2-
   0.2480000000000000    0.2480000000000000    0.7520000000000000 O2-
