Ba2 Ce1 Pt1 O6
1.0
   4.9645908179623355    0.0000000000000000    2.8663078451668991
   1.6548636059874453    4.6806611109301812    2.8663078451668991
   0.0000000000000000    0.0000000000000000    5.7326156903337973
Ba Ce Pt O
2 1 1 6
direct
   0.7500000000000000    0.7500000000000000    0.7500000000000000 Ba2+
   0.2500000000000000    0.2500000000000000    0.2500000000000000 Ba2+
   0.5000000000000000    0.5000000000000000    0.5000000000000000 Ce4+
   0.0000000000000000    0.0000000000000000    0.0000000000000000 Pt4+
   0.7520000000000000    0.7520000000000000    0.2480000000000000 O2-
   0.2480000000000000    0.7520000000000000    0.7520000000000000 O2-
   0.7520000000000000    0.2480000000000000    0.7520000000000000 O2-
   0.7520000000000000    0.2480000000000000    0.2480000000000000 O2-
   0.2480000000000000    0.7520000000000000    0.2480000000000000 O2-
   0.2480000000000000    0.2480000000000000    0.7520000000000000 O2-
