Ba2 Ce1 Pt1 O6
1.0
   4.4129696159665208    0.0000000000000000    2.5478291957039105
   1.4709898719888403    4.1605876541601612    2.5478291957039105
   0.0000000000000000    0.0000000000000000    5.0956583914078202
Ba Ce Pt O
2 1 1 6
direct
   0.7500000000000000    0.7500000000000000    0.7500000000000000 Ba2+
   0.2500000000000000    0.2500000000000000    0.2500000000000000 Ba2+
   0.5000000000000000    0.5000000000000000    0.5000000000000000 Ce4+
   0.0000000000000000    0.0000000000000000    0.0000000000000000 Pt4+
   0.7520000000000000    0.7520000000000000    0.2480000000000000 O2-
   0.2480000000000000    0.7520000000000000    0.7520000000000000 O2-
   0.7520000000000000    0.2480000000000000    0.7520000000000000 O2-
   0.7520000000000000    0.2480000000000000    0.2480000000000000 O2-
   0.2480000000000000    0.7520000000000000    0.2480000000000000 O2-
   0.2480000000000000    0.2480000000000000    0.7520000000000000 O2-
