Ca1 Pm1 Cd1 In1
1.0
   4.7107319978120596    0.0000000000000000    2.7197419989490519
   1.5702440001594786    4.4413210004415067    2.7197420004884916
   0.0000000000000000    0.0000000000000000    5.4394850000000003
Ca Pm Cd In
1 1 1 1
direct
   0.5000000000000000    0.5000000000000000    0.5000000000000000 Ca
   0.0000000000000000    0.0000000000000000    0.0000000000000000 Pm
   0.2500000000000000    0.2500000000000000    0.2500000000000000 Cd
   0.7500000000000000    0.7500000000000000    0.7500000000000000 In
