Cs2 Ag1 Au1 Cl6
1.0
   7.3202058851635750    0.0000000000000000    4.2263228383226741
   2.4400686283878583    6.9015562947744495    4.2263228383226741
   0.0000000000000000    0.0000000000000000    8.4526456766453464
Cs Ag Au Cl
2 1 1 6
direct
   0.7500000000000000    0.7500000000000000    0.7500000000000000 Cs+
   0.2500000000000000    0.2500000000000000    0.2500000000000000 Cs+
   0.5000000000000000    0.5000000000000000    0.5000000000000000 Ag+
   0.0000000000000000    0.0000000000000000    0.0000000000000000 Au3+
   0.7600000000000000    0.7600000000000000    0.2400000000000000 Cl-
   0.2400000000000000    0.7600000000000000    0.7600000000000000 Cl-
   0.7600000000000000    0.2400000000000000    0.7600000000000000 Cl-
   0.7600000000000000    0.2400000000000000    0.2400000000000000 Cl-
   0.2400000000000000    0.7600000000000000    0.2400000000000000 Cl-
   0.2400000000000000    0.2400000000000000    0.7600000000000000 Cl-
