Cs2 Ag1 Au1 Cl6
1.0
   5.9258809546562272    0.0000000000000000    3.4213089643564505
   1.9752936515520758    5.5869741433888400    3.4213089643564505
   0.0000000000000000    0.0000000000000000    6.8426179287128992
Cs Ag Au Cl
2 1 1 6
direct
   0.7500000000000000    0.7500000000000000    0.7500000000000000 Cs+
   0.2500000000000000    0.2500000000000000    0.2500000000000000 Cs+
   0.5000000000000000    0.5000000000000000    0.5000000000000000 Ag+
   0.0000000000000000    0.0000000000000000    0.0000000000000000 Au3+
   0.7600000000000000    0.7600000000000000    0.2400000000000000 Cl-
   0.2400000000000000    0.7600000000000000    0.7600000000000000 Cl-
   0.7600000000000000    0.2400000000000000    0.7600000000000000 Cl-
   0.7600000000000000    0.2400000000000000    0.2400000000000000 Cl-
   0.2400000000000000    0.7600000000000000    0.2400000000000000 Cl-
   0.2400000000000000    0.2400000000000000    0.7600000000000000 Cl-
