Cs2 Ag1 Au1 Cl6
1.0
   7.6687871177904130    0.0000000000000000    4.4275763068142302
   2.5562623725968043    7.2302018326208524    4.4275763068142302
   0.0000000000000000    0.0000000000000000    8.8551526136284586
Cs Ag Au Cl
2 1 1 6
direct
   0.7500000000000000    0.7500000000000000    0.7500000000000000 Cs+
   0.2500000000000000    0.2500000000000000    0.2500000000000000 Cs+
   0.5000000000000000    0.5000000000000000    0.5000000000000000 Ag+
   0.0000000000000000    0.0000000000000000    0.0000000000000000 Au3+
   0.7600000000000000    0.7600000000000000    0.2400000000000000 Cl-
   0.2400000000000000    0.7600000000000000    0.7600000000000000 Cl-
   0.7600000000000000    0.2400000000000000    0.7600000000000000 Cl-
   0.7600000000000000    0.2400000000000000    0.2400000000000000 Cl-
   0.2400000000000000    0.7600000000000000    0.2400000000000000 Cl-
   0.2400000000000000    0.2400000000000000    0.7600000000000000 Cl-
