Cs2 Ag1 Au1 Cl6
1.0
   4.8801372567757166    0.0000000000000000    2.8175485588817826
   1.6267124189252389    4.6010375298496333    2.8175485588817826
   0.0000000000000000    0.0000000000000000    5.6350971177635643
Cs Ag Au Cl
2 1 1 6
direct
   0.7500000000000000    0.7500000000000000    0.7500000000000000 Cs+
   0.2500000000000000    0.2500000000000000    0.2500000000000000 Cs+
   0.5000000000000000    0.5000000000000000    0.5000000000000000 Ag+
   0.0000000000000000    0.0000000000000000    0.0000000000000000 Au3+
   0.7600000000000000    0.7600000000000000    0.2400000000000000 Cl-
   0.2400000000000000    0.7600000000000000    0.7600000000000000 Cl-
   0.7600000000000000    0.2400000000000000    0.7600000000000000 Cl-
   0.7600000000000000    0.2400000000000000    0.2400000000000000 Cl-
   0.2400000000000000    0.7600000000000000    0.2400000000000000 Cl-
   0.2400000000000000    0.2400000000000000    0.7600000000000000 Cl-
