Cs2 Ag1 Au1 Cl6
1.0
   8.7145308156709227    0.0000000000000000    5.0313367122888977
   2.9048436052236410    8.2161384461600591    5.0313367122888977
   0.0000000000000000    0.0000000000000000   10.0626734245777936
Cs Ag Au Cl
2 1 1 6
direct
   0.7500000000000000    0.7500000000000000    0.7500000000000000 Cs+
   0.2500000000000000    0.2500000000000000    0.2500000000000000 Cs+
   0.5000000000000000    0.5000000000000000    0.5000000000000000 Ag+
   0.0000000000000000    0.0000000000000000    0.0000000000000000 Au3+
   0.7600000000000000    0.7600000000000000    0.2400000000000000 Cl-
   0.2400000000000000    0.7600000000000000    0.7600000000000000 Cl-
   0.7600000000000000    0.2400000000000000    0.7600000000000000 Cl-
   0.7600000000000000    0.2400000000000000    0.2400000000000000 Cl-
   0.2400000000000000    0.7600000000000000    0.2400000000000000 Cl-
   0.2400000000000000    0.2400000000000000    0.7600000000000000 Cl-
