La1 Pr1 Al8 Co2
1.0
   4.0602539999999996    0.0000000000000000    0.0000000000000002
   0.0000000000000011    6.9448070000000000    0.0000000000000004
   0.0000000000000000    0.0000000000000000    7.7062020000000002
La Pr Al Co
1 1 8 2
direct
   0.0000000000000000    0.8845720000000000    0.2500000000000000 La
   0.0000000000000000    0.1161180000000000    0.7500000000000000 Pr
   0.0000000000000000    0.4993960000000000    0.9997690000000000 Al
   0.0000000000000000    0.4993960000000000    0.5002310000000000 Al
   0.5000000000000000    0.5412760000000000    0.2500000000000000 Al
   0.5000000000000000    0.7968390000000000    0.5714100000000000 Al
   0.5000000000000000    0.7968390000000000    0.9285900000000000 Al
   0.5000000000000000    0.2035830000000000    0.0700300000000000 Al
   0.5000000000000000    0.2035830000000000    0.4299700000000000 Al
   0.5000000000000000    0.4582980000000000    0.7500000000000000 Al
   0.0000000000000000    0.6835329999999999    0.7500000000000000 Co
   0.0000000000000000    0.3165670000000000    0.2500000000000000 Co
