Ho1 Er2 Mg1 Cd2 Au3
1.0
   7.7721799999999996    0.0000000000000000    0.0000000000000005
  -3.8860910027917477    6.7783420040130435    0.0000000000000005
   0.0000000000000000    0.0000000000000000    3.8664760000000000
Ho Er Mg Cd Au
1 2 1 2 3
direct
   0.6068940000000000    0.0000000000000000    0.0000000000000000 Ho
   0.9892420000000000    0.5856760000000000    0.0000000000000000 Er
   0.4035660000000000    0.4143240000000000    0.0000000000000000 Er
   0.2593830000000000    0.0000000000000000    0.5000000000000000 Mg
   0.0022200000000000    0.2649880000000000    0.5000000000000000 Cd
   0.7372320000000000    0.7350120000000000    0.5000000000000000 Cd
   0.3311300000000000    0.6773820000000000    0.5000000000000000 Au
   0.6537490000000000    0.3226180000000000    0.5000000000000000 Au
   0.0165860000000000    0.0000000000000000    0.0000000000000000 Au
