La3 Tb1 Ni2 As2 Se2
1.0
   4.1720980000000001    0.0000000000000000    0.0000000000000003
  -2.0860490019387585    3.6131430040699755    0.0000000000000003
   0.0000000000000000    0.0000000000000000   15.1972959999999997
La Tb Ni As Se
3 1 2 2 2
direct
   0.3333333333333333    0.6666666666666666    0.3743180000000000 La
   0.6666666666666666    0.3333333333333333    0.6216540000000000 La
   0.6666666666666666    0.3333333333333333    0.8843090000000000 La
   0.3333333333333333    0.6666666666666666    0.1216600000000000 Tb
   0.0000000000000000    0.0000000000000000    0.2409530000000000 Ni
   0.0000000000000000    0.0000000000000000    0.7541580000000000 Ni
   0.3333333333333333    0.6666666666666666    0.7532690000000000 As
   0.6666666666666666    0.3333333333333333    0.2414730000000000 As
   0.0000000000000000    0.0000000000000000    0.4978200000000000 Se
   0.0000000000000000    0.0000000000000000    0.0103870000000000 Se
