Dy1 Y3 Cd2 Ga4
1.0
   7.3507233999999997    0.0000000000000000    0.0000000000000005
  -0.0069510109929951    7.3507076934767808    0.0000000000000005
   0.0000000000000000    0.0000000000000000    4.2956799999999999
Dy Y Cd Ga
1 3 2 4
direct
   0.6730660000000001    0.1730620000000000    0.5000000000000000 Dy
   0.3268690000000000    0.8268610000000000    0.5000000000000000 Y
   0.8265700000000000    0.6732640000000000    0.5000000000000000 Y
   0.1732630000000000    0.3265690000000000    0.5000000000000000 Y
   0.0000330000000000    0.0000640000000000    0.0000000000000000 Cd
   0.5000790000000001    0.5000280000000000    0.0000000000000000 Cd
   0.3756080000000000    0.1251970000000000    0.0000000000000000 Ga
   0.8745450000000000    0.3745310000000000    0.0000000000000000 Ga
   0.1247950000000000    0.6247830000000000    0.0000000000000000 Ga
   0.6251730000000000    0.8756389999999999    0.0000000000000000 Ga
