Ce4 Pr3 Nd3 Ru4
1.0
   9.1345862641901192    0.0000000000000000    0.6727680002227567
   6.8043229956567108    6.1094884684199009    0.6890995841320201
   0.0000000000000000    0.0000000000000000    7.1738576199999997
Ce Pr Nd Ru
4 3 3 4
direct
   0.0053940000000000    0.8126670000000000    0.9015450000000000 Ce
   0.1873720000000000    0.9945840000000000    0.5970850000000000 Ce
   0.9954370000000000    0.1865910000000000    0.0987810000000000 Ce
   0.8116030000000000    0.0061310000000000    0.4015170000000000 Ce
   0.3501720000000000    0.2192170000000000    0.8271350000000000 Pr
   0.7815110000000000    0.6496650000000000    0.6726950000000000 Pr
   0.6495540000000000    0.7811110000000000    0.1731130000000000 Pr
   0.2192950000000000    0.3506140000000000    0.3275210000000000 Nd
   0.5764670000000000    0.4238160000000000    0.7496760000000000 Nd
   0.4234450000000000    0.5760640000000000    0.2503360000000000 Nd
   0.1407400000000000    0.6463960000000000    0.5977330000000000 Ru
   0.3515950000000000    0.8597640000000000    0.9012450000000000 Ru
   0.8613170000000000    0.3527790000000000    0.4023720000000000 Ru
   0.6460960000000000    0.1406000000000000    0.0992460000000000 Ru
