Th1 Np1 Te2 As2
1.0
   4.2138119999999999    0.0000000000000000    0.0000000000000003
   0.0000000000000007    4.2138119999999999    0.0000000000000003
   0.0000000000000000    0.0000000000000000    9.0215650000000007
Th Np Te As
1 1 2 2
direct
   0.0000000000000000    0.5000000000000000    0.7539960000000000 Th
   0.5000000000000000    0.0000000000000000    0.2487000000000000 Np
   0.5000000000000000    0.0000000000000000    0.6234880000000000 Te
   0.0000000000000000    0.5000000000000000    0.3681900000000000 Te
   0.0000000000000000    0.0000000000000000    0.0028130000000000 As
   0.5000000000000000    0.5000000000000000    0.0028130000000000 As
