K2 Sn1 Cl6
1.0
   8.7481776527970663    0.0000000000000000    5.0507627227610552
   2.9160592175990225    8.2478609884232270    5.0507627227610552
   0.0000000000000000    0.0000000000000000   10.1015254455221086
K Sn Cl
2 1 6
direct
   0.7500000000000000    0.7500000000000000    0.7500000000000000 K+
   0.2500000000000000    0.2500000000000000    0.2500000000000000 K+
   0.0000000000000000    0.0000000000000000    0.0000000000000000 Sn4+
   0.7550000000000000    0.7550000000000000    0.2450000000000000 Cl-
   0.2450000000000000    0.7550000000000000    0.7550000000000000 Cl-
   0.7550000000000000    0.2450000000000000    0.7550000000000000 Cl-
   0.7550000000000000    0.2450000000000000    0.2450000000000000 Cl-
   0.2450000000000000    0.7550000000000000    0.2450000000000000 Cl-
   0.2450000000000000    0.2450000000000000    0.7550000000000000 Cl-
