K2 Sn1 Cl6
1.0
   7.8108729042830953    0.0000000000000000    4.5096095738938002
   2.6036243014276987    7.3641615968064524    4.5096095738938002
   0.0000000000000000    0.0000000000000000    9.0192191477875987
K Sn Cl
2 1 6
direct
   0.7500000000000000    0.7500000000000000    0.7500000000000000 K+
   0.2500000000000000    0.2500000000000000    0.2500000000000000 K+
   0.0000000000000000    0.0000000000000000    0.0000000000000000 Sn4+
   0.7550000000000000    0.7550000000000000    0.2450000000000000 Cl-
   0.2450000000000000    0.7550000000000000    0.7550000000000000 Cl-
   0.7550000000000000    0.2450000000000000    0.7550000000000000 Cl-
   0.7550000000000000    0.2450000000000000    0.2450000000000000 Cl-
   0.2450000000000000    0.7550000000000000    0.2450000000000000 Cl-
   0.2450000000000000    0.2450000000000000    0.7550000000000000 Cl-
