K2 Sn1 Cl6
1.0
   6.5611332395977993    0.0000000000000000    3.7880720420707918
   2.1870444131992670    6.1858957413174203    3.7880720420707918
   0.0000000000000000    0.0000000000000000    7.5761440841415819
K Sn Cl
2 1 6
direct
   0.7500000000000000    0.7500000000000000    0.7500000000000000 K+
   0.2500000000000000    0.2500000000000000    0.2500000000000000 K+
   0.0000000000000000    0.0000000000000000    0.0000000000000000 Sn4+
   0.7550000000000000    0.7550000000000000    0.2450000000000000 Cl-
   0.2450000000000000    0.7550000000000000    0.7550000000000000 Cl-
   0.7550000000000000    0.2450000000000000    0.7550000000000000 Cl-
   0.7550000000000000    0.2450000000000000    0.2450000000000000 Cl-
   0.2450000000000000    0.7550000000000000    0.2450000000000000 Cl-
   0.2450000000000000    0.2450000000000000    0.7550000000000000 Cl-
