K2 Sn1 Cl6
1.0
   4.6865237425698565    0.0000000000000000    2.7057657443362797
   1.5621745808566192    4.4184969580838711    2.7057657443362797
   0.0000000000000000    0.0000000000000000    5.4115314886725585
K Sn Cl
2 1 6
direct
   0.7500000000000000    0.7500000000000000    0.7500000000000000 K+
   0.2500000000000000    0.2500000000000000    0.2500000000000000 K+
   0.0000000000000000    0.0000000000000000    0.0000000000000000 Sn4+
   0.7550000000000000    0.7550000000000000    0.2450000000000000 Cl-
   0.2450000000000000    0.7550000000000000    0.7550000000000000 Cl-
   0.7550000000000000    0.2450000000000000    0.7550000000000000 Cl-
   0.7550000000000000    0.2450000000000000    0.2450000000000000 Cl-
   0.2450000000000000    0.7550000000000000    0.2450000000000000 Cl-
   0.2450000000000000    0.2450000000000000    0.7550000000000000 Cl-
