Re1 W4
1.0
   2.7314677238464355    0.0000000000000000   -0.2239888906478880
  -0.9440816463064862    2.5643720487185679   -0.2242315560579300
   0.0000000000000000    0.0000000000000000   11.3277225494384766
Re W
1 4
direct
   0.8194771409034729    0.5198945999145508    0.0652531161904335 Re
   0.4184344112873077    0.1186114400625229    0.2631070315837860 W
   0.6203648447990417    0.3198575377464294    0.6654812693595886 W
   0.2211560457944870    0.9210413694381714    0.8663224577903748 W
   0.0197055041790009    0.7195059061050415    0.4646049439907074 W
