La3 Ni2 B2 N3
1.0
   3.1229364706240026    0.0000000000000000   -0.5545912733234244
  -0.0984879082042424    3.1213830799008080   -0.5545912733234244
   0.0000000000000000    0.0000000000000000    9.0700162197464511
La Ni B N
3 2 2 3
direct
   0.6280000000000000    0.6280000000000000    0.2560000000000000 La
   0.3720000000000000    0.3720000000000000    0.7440000000000000 La
   0.0000000000000000    0.0000000000000000    0.0000000000000000 La
   0.7500000000000000    0.2500000000000000    0.5000000000000000 Ni
   0.2500000000000000    0.7500000000000000    0.5000000000000000 Ni
   0.2210000000000000    0.2210000000000000    0.4420000000000000 B
   0.7790000000000000    0.7790000000000000    0.5580000000000001 B
   0.1330000000000000    0.1330000000000000    0.2660000000000000 N
   0.8670000000000000    0.8670000000000000    0.7340000000000000 N
   0.5000000000000000    0.5000000000000000    0.0000000000000000 N
