La3 Ni2 B2 N3
1.0
   4.1639152941653368    0.0000000000000000   -0.7394550310978991
  -0.1313172109389898    4.1618441065344109   -0.7394550310978991
   0.0000000000000000    0.0000000000000000   12.0933549596619354
La Ni B N
3 2 2 3
direct
   0.6280000000000000    0.6280000000000000    0.2560000000000000 La
   0.3720000000000000    0.3720000000000000    0.7440000000000000 La
   0.0000000000000000    0.0000000000000000    0.0000000000000000 La
   0.7500000000000000    0.2500000000000000    0.5000000000000000 Ni
   0.2500000000000000    0.7500000000000000    0.5000000000000000 Ni
   0.2210000000000000    0.2210000000000000    0.4420000000000000 B
   0.7790000000000000    0.7790000000000000    0.5580000000000001 B
   0.1330000000000000    0.1330000000000000    0.2660000000000000 N
   0.8670000000000000    0.8670000000000000    0.7340000000000000 N
   0.5000000000000000    0.5000000000000000    0.0000000000000000 N
