Ga2 Ag2 S4
1.0
   7.4869388689207375    0.0000000000000000    3.6671660261216781
  -1.7765376172461773    7.2731126570035602    3.6671660261216781
   0.0000000000000000    0.0000000000000000    9.1425007798528046
Ga Ag S
2 2 4
direct
   0.6173000000000000    0.3747000000000000    0.9890000000000000 Ga
   0.3747000000000000    0.6173000000000000    0.4890000000000000 Ga
   0.0947000000000000    0.9053000000000000    0.0000000000000000 Ag
   0.9053000000000000    0.0947000000000000    0.5000000000000000 Ag
   0.9980000000000000    0.6800000000000000    0.7730000000000000 S
   0.6800000000000000    0.9980000000000000    0.2730000000000000 S
   0.5110000000000000    0.2750000000000000    0.7130000000000000 S
   0.2750000000000000    0.5110000000000000    0.2130000000000000 S
