Ga2 Ag2 S4
1.0
   3.7434694344603687    0.0000000000000000    1.8335830130608390
  -0.8882688086230887    3.6365563285017801    1.8335830130608390
   0.0000000000000000    0.0000000000000000    4.5712503899264023
Ga Ag S
2 2 4
direct
   0.6173000000000000    0.3747000000000000    0.9890000000000000 Ga
   0.3747000000000000    0.6173000000000000    0.4890000000000000 Ga
   0.0947000000000000    0.9053000000000000    0.0000000000000000 Ag
   0.9053000000000000    0.0947000000000000    0.5000000000000000 Ag
   0.9980000000000000    0.6800000000000000    0.7730000000000000 S
   0.6800000000000000    0.9980000000000000    0.2730000000000000 S
   0.5110000000000000    0.2750000000000000    0.7130000000000000 S
   0.2750000000000000    0.5110000000000000    0.2130000000000000 S
