Ga2 Ag2 S4
1.0
   8.1108504413307987    0.0000000000000000    3.9727631949651512
  -1.9245824186833589    7.8792053784205240    3.9727631949651512
   0.0000000000000000    0.0000000000000000    9.9043758448405388
Ga Ag S
2 2 4
direct
   0.6173000000000000    0.3747000000000000    0.9890000000000000 Ga
   0.3747000000000000    0.6173000000000000    0.4890000000000000 Ga
   0.0947000000000000    0.9053000000000000    0.0000000000000000 Ag
   0.9053000000000000    0.0947000000000000    0.5000000000000000 Ag
   0.9980000000000000    0.6800000000000000    0.7730000000000000 S
   0.6800000000000000    0.9980000000000000    0.2730000000000000 S
   0.5110000000000000    0.2750000000000000    0.7130000000000000 S
   0.2750000000000000    0.5110000000000000    0.2130000000000000 S
