Ga2 Ag2 S4
1.0
   4.9912925792804916    0.0000000000000000    2.4447773507477857
  -1.1843584114974517    4.8487417713357068    2.4447773507477857
   0.0000000000000000    0.0000000000000000    6.0950005199018698
Ga Ag S
2 2 4
direct
   0.6173000000000000    0.3747000000000000    0.9890000000000000 Ga
   0.3747000000000000    0.6173000000000000    0.4890000000000000 Ga
   0.0947000000000000    0.9053000000000000    0.0000000000000000 Ag
   0.9053000000000000    0.0947000000000000    0.5000000000000000 Ag
   0.9980000000000000    0.6800000000000000    0.7730000000000000 S
   0.6800000000000000    0.9980000000000000    0.2730000000000000 S
   0.5110000000000000    0.2750000000000000    0.7130000000000000 S
   0.2750000000000000    0.5110000000000000    0.2130000000000000 S
